Warehouses = 12;
Stores = 29;

Capacity = [70, 100, 40, 40, 50, 100, 40, 90, 70, 90, 100, 50];
FixedCost = [650, 1110, 310, 390, 450, 770, 520, 1050, 540, 870, 950, 460];
Goods = [10, 8, 9, 13, 16, 7, 11, 10, 19, 8, 13, 13, 18, 5, 12, 16, 7, 11, 8, 5, 13, 20, 14, 8, 17, 19, 20, 20, 13];
SupplyCost = [|30, 69, 64, 18, 21, 32, 55, 29, 17, 4, 20, 47
              |1, 87, 93, 41, 52, 4, 50, 7, 46, 35, 14, 74
              |44, 121, 91, 70, 68, 39, 7, 37, 68, 55, 37, 97
              |42, 50, 65, 2, 19, 46, 75, 44, 10, 18, 37, 31
              |83, 8, 82, 46, 54, 88, 120, 87, 50, 62, 81, 29
              |49, 41, 95, 31, 51, 54, 96, 55, 42, 46, 53, 50
              |32, 54, 83, 17, 37, 37, 76, 37, 28, 27, 34, 47
              |67, 61, 33, 34, 16, 69, 80, 66, 24, 33, 57, 25
              |31, 61, 99, 33, 53, 36, 81, 38, 44, 41, 39, 62
              |18, 90, 79, 40, 43, 16, 36, 12, 41, 27, 6, 70
              |56, 97, 46, 51, 36, 55, 43, 51, 42, 35, 42, 64
              |73, 70, 24, 43, 23, 74, 81, 71, 32, 39, 62, 33
              |62, 50, 45, 24, 13, 64, 83, 62, 16, 29, 53, 16
              |28, 105, 85, 54, 55, 24, 22, 21, 54, 40, 21, 83
              |24, 81, 110, 47, 64, 28, 73, 31, 57, 49, 37, 79
              |48, 92, 51, 45, 33, 47, 40, 43, 37, 28, 34, 62
              |49, 111, 70, 61, 53, 45, 19, 42, 56, 44, 37, 83
              |47, 99, 58, 50, 40, 45, 33, 41, 43, 33, 34, 69
              |43, 85, 52, 36, 25, 43, 45, 39, 29, 20, 30, 55
              |35, 53, 72, 7, 26, 39, 72, 38, 17, 18, 32, 39
              |62, 88, 34, 46, 28, 61, 56, 58, 36, 34, 48, 53
              |70, 33, 59, 30, 30, 74, 99, 73, 29, 42, 65, 6
              |39, 54, 98, 32, 52, 44, 87, 45, 43, 43, 45, 57
              |89, 10, 83, 52, 58, 94, 125, 93, 54, 67, 87, 32
              |49, 42, 96, 32, 51, 54, 95, 55, 42, 46, 53, 50
              |15, 79, 77, 30, 36, 16, 48, 14, 32, 19, 6, 61
              |27, 78, 110, 47, 65, 31, 77, 34, 57, 50, 39, 78
              |65, 21, 81, 31, 44, 69, 104, 69, 37, 48, 64, 30
              |85, 73, 17, 53, 35, 86, 90, 83, 43, 51, 73, 36|];
