Warehouses = 100;
Stores = 234;

Capacity = [30, 40, 50, 60, 40, 100, 100, 90, 60, 40, 30, 50, 80, 60, 100, 80, 40, 90, 70, 40, 50, 100, 100, 100, 60, 40, 60, 50, 30, 30, 60, 60, 80, 40, 80, 30, 90, 90, 90, 60, 90, 50, 70, 60, 50, 90, 90, 40, 90, 100, 40, 30, 30, 90, 80, 100, 80, 30, 90, 40, 70, 100, 40, 60, 60, 30, 100, 70, 70, 30, 30, 30, 90, 70, 60, 60, 100, 70, 40, 50, 90, 30, 100, 60, 70, 40, 40, 50, 40, 40, 70, 50, 90, 50, 100, 30, 90, 50, 80, 100];
FixedCost = [320, 470, 610, 440, 440, 870, 700, 710, 720, 330, 340, 580, 560, 660, 1270, 560, 410, 640, 840, 350, 380, 1210, 1290, 1140, 740, 420, 740, 440, 270, 370, 700, 660, 620, 520, 920, 290, 900, 840, 700, 640, 800, 490, 670, 480, 620, 1080, 770, 440, 770, 730, 380, 280, 260, 940, 620, 1100, 830, 350, 870, 490, 590, 750, 330, 530, 580, 290, 1250, 650, 880, 210, 310, 300, 700, 870, 530, 630, 1200, 730, 320, 450, 860, 370, 1160, 470, 780, 350, 410, 520, 290, 380, 760, 600, 1170, 480, 1050, 350, 960, 420, 710, 1280];
Goods = [9, 20, 10, 7, 9, 8, 15, 14, 16, 13, 20, 11, 12, 5, 7, 19, 11, 10, 17, 13, 16, 15, 18, 13, 18, 18, 10, 17, 8, 8, 5, 18, 6, 11, 9, 17, 13, 19, 5, 13, 20, 20, 15, 18, 15, 13, 10, 10, 9, 18, 18, 14, 16, 16, 13, 10, 18, 11, 18, 20, 8, 13, 10, 6, 17, 12, 16, 8, 5, 10, 11, 16, 6, 17, 5, 18, 5, 6, 13, 14, 16, 9, 19, 11, 11, 16, 11, 9, 9, 8, 14, 16, 12, 20, 17, 10, 5, 10, 16, 10, 6, 16, 8, 6, 16, 8, 6, 20, 11, 15, 20, 5, 12, 15, 20, 19, 13, 17, 9, 13, 16, 8, 15, 8, 13, 12, 14, 10, 5, 13, 14, 18, 8, 20, 14, 10, 6, 17, 6, 15, 10, 19, 8, 14, 18, 17, 9, 6, 6, 9, 19, 10, 6, 13, 20, 18, 19, 10, 5, 18, 19, 7, 14, 8, 5, 11, 12, 10, 7, 10, 8, 7, 6, 15, 5, 14, 14, 11, 15, 5, 8, 15, 7, 11, 14, 16, 18, 10, 11, 16, 11, 14, 15, 7, 12, 14, 16, 19, 9, 12, 8, 7, 15, 13, 5, 8, 7, 13, 11, 8, 20, 14, 14, 5, 10, 8, 5, 7, 8, 19, 16, 14, 18, 17, 11, 12, 9, 14, 16, 11, 15, 11, 17, 13];
SupplyCost = [|79, 12, 28, 35, 15, 36, 71, 25, 68, 31, 26, 17, 83, 74, 86, 86, 39, 40, 91, 81, 89, 92, 25, 76, 64, 69, 89, 22, 21, 3, 68, 37, 77, 56, 98, 72, 78, 29, 77, 42, 63, 92, 54, 47, 99, 109, 97, 42, 37, 51, 34, 83, 15, 80, 110, 40, 30, 64, 74, 25, 53, 85, 67, 37, 76, 65, 45, 26, 32, 101, 61, 25, 96, 58, 56, 41, 81, 38, 41, 59, 72, 39, 19, 76, 33, 67, 84, 18, 38, 93, 40, 56, 76, 90, 45, 65, 89, 68, 59, 68
              |82, 15, 33, 39, 16, 40, 69, 26, 67, 32, 28, 12, 88, 78, 83, 90, 36, 41, 88, 78, 91, 95, 21, 76, 68, 66, 94, 28, 15, 8, 65, 41, 73, 53, 97, 70, 81, 28, 72, 40, 66, 94, 51, 45, 100, 109, 98, 39, 39, 47, 30, 87, 17, 82, 109, 41, 33, 65, 72, 23, 52, 86, 63, 32, 78, 68, 49, 30, 33, 100, 66, 30, 98, 61, 61, 42, 85, 38, 36, 62, 76, 38, 25, 72, 28, 62, 86, 24, 39, 93, 37, 58, 79, 92, 49, 62, 87, 68, 55, 66
              |10, 97, 63, 56, 76, 57, 74, 67, 57, 61, 64, 93, 32, 37, 79, 24, 72, 52, 74, 79, 7, 22, 83, 35, 33, 76, 32, 79, 94, 87, 90, 55, 83, 71, 56, 59, 23, 71, 102, 68, 27, 13, 74, 68, 37, 47, 30, 80, 54, 89, 81, 27, 75, 16, 65, 53, 59, 34, 76, 75, 53, 20, 99, 93, 16, 25, 54, 65, 62, 69, 43, 74, 8, 31, 47, 50, 22, 60, 100, 36, 23, 67, 91, 93, 86, 96, 9, 92, 55, 28, 76, 34, 16, 1, 48, 75, 83, 45, 89, 63
              |64, 117, 91, 86, 91, 89, 43, 81, 38, 77, 83, 98, 92, 93, 35, 85, 69, 69, 26, 39, 55, 84, 85, 37, 83, 46, 94, 108, 97, 104, 59, 88, 46, 55, 8, 35, 81, 77, 66, 64, 69, 49, 57, 60, 26, 21, 33, 71, 72, 71, 77, 87, 91, 51, 4, 68, 83, 50, 42, 81, 53, 43, 70, 85, 55, 69, 94, 91, 74, 11, 93, 104, 58, 69, 94, 72, 81, 67, 89, 82, 76, 67, 117, 57, 81, 67, 56, 117, 71, 34, 70, 68, 71, 61, 86, 49, 36, 39, 66, 40
              |27, 100, 67, 60, 84, 60, 96, 77, 79, 71, 72, 103, 14, 24, 103, 9, 88, 64, 99, 102, 33, 4, 95, 58, 31, 97, 10, 79, 105, 92, 110, 58, 105, 91, 82, 81, 18, 83, 122, 84, 36, 38, 93, 85, 62, 72, 55, 97, 65, 106, 95, 12, 82, 39, 90, 66, 66, 54, 98, 86, 71, 45, 119, 107, 37, 34, 52, 69, 74, 94, 36, 74, 31, 41, 41, 60, 14, 74, 114, 36, 24, 82, 91, 114, 99, 116, 32, 92, 67, 54, 92, 45, 23, 26, 50, 96, 107, 67, 108, 85
              |39, 48, 14, 7, 31, 7, 67, 26, 54, 23, 21, 51, 42, 33, 80, 44, 44, 22, 81, 76, 51, 49, 45, 48, 22, 67, 48, 29, 53, 39, 75, 5, 76, 55, 77, 58, 35, 35, 87, 43, 23, 55, 56, 46, 70, 80, 65, 53, 19, 64, 48, 41, 30, 44, 89, 24, 15, 35, 70, 37, 38, 51, 80, 59, 39, 25, 10, 16, 27, 85, 21, 24, 56, 19, 18, 16, 39, 31, 66, 16, 30, 39, 41, 81, 52, 78, 45, 42, 22, 61, 48, 18, 35, 50, 3, 64, 84, 47, 69, 58
              |69, 74, 60, 58, 51, 61, 9, 44, 19, 42, 48, 50, 91, 87, 24, 88, 24, 40, 30, 18, 69, 91, 38, 41, 73, 7, 96, 72, 49, 62, 16, 62, 15, 7, 45, 19, 80, 34, 28, 21, 61, 68, 8, 16, 58, 63, 61, 21, 42, 21, 29, 88, 51, 59, 55, 38, 51, 41, 12, 38, 25, 57, 25, 34, 59, 62, 71, 58, 37, 43, 79, 71, 75, 57, 78, 45, 82, 31, 38, 69, 73, 25, 78, 20, 33, 22, 66, 78, 39, 57, 22, 54, 72, 74, 64, 3, 27, 30, 16, 13
              |26, 83, 52, 46, 58, 48, 44, 48, 26, 42, 48, 71, 53, 52, 50, 48, 46, 33, 46, 49, 25, 49, 59, 6, 41, 45, 56, 69, 72, 71, 59, 47, 52, 42, 35, 28, 41, 48, 71, 41, 27, 24, 44, 40, 27, 37, 24, 53, 36, 60, 55, 49, 58, 15, 46, 33, 45, 9, 45, 52, 25, 14, 69, 66, 16, 27, 52, 52, 41, 45, 51, 65, 31, 26, 52, 34, 43, 37, 73, 40, 36, 41, 80, 62, 60, 66, 22, 81, 35, 20, 49, 25, 32, 30, 44, 45, 54, 14, 59, 33
              |93, 80, 76, 77, 62, 79, 27, 58, 43, 59, 64, 54, 114, 109, 34, 112, 38, 60, 42, 29, 93, 115, 45, 65, 96, 24, 119, 85, 51, 70, 9, 80, 22, 28, 64, 42, 103, 48, 7, 38, 85, 92, 26, 35, 81, 84, 84, 29, 62, 19, 37, 111, 63, 83, 71, 58, 68, 65, 27, 49, 48, 81, 3, 33, 83, 86, 90, 74, 54, 58, 101, 85, 100, 80, 98, 65, 106, 50, 32, 91, 96, 42, 88, 12, 37, 3, 90, 87, 59, 81, 34, 76, 95, 98, 84, 24, 34, 54, 12, 37
              |39, 62, 35, 30, 36, 33, 37, 26, 23, 21, 27, 49, 59, 54, 49, 57, 25, 12, 49, 45, 44, 60, 37, 25, 41, 37, 64, 51, 49, 49, 48, 33, 46, 27, 49, 27, 48, 25, 60, 21, 29, 45, 29, 21, 48, 58, 46, 33, 16, 42, 34, 56, 36, 33, 61, 11, 26, 14, 40, 30, 8, 36, 55, 45, 31, 30, 41, 34, 19, 55, 47, 48, 51, 24, 46, 16, 51, 14, 52, 37, 41, 19, 61, 53, 38, 52, 39, 61, 14, 42, 29, 21, 41, 47, 33, 35, 53, 18, 45, 27
              |48, 88, 63, 58, 62, 61, 25, 52, 10, 48, 54, 70, 75, 73, 28, 70, 41, 40, 25, 28, 45, 71, 57, 17, 61, 27, 78, 79, 69, 75, 42, 60, 32, 29, 21, 9, 63, 48, 52, 36, 47, 42, 32, 32, 30, 36, 33, 44, 44, 48, 50, 71, 62, 36, 33, 39, 54, 25, 25, 52, 24, 32, 52, 59, 38, 48, 68, 62, 45, 27, 70, 76, 50, 45, 70, 44, 65, 38, 64, 59, 57, 38, 88, 43, 54, 49, 43, 88, 42, 30, 43, 43, 53, 50, 59, 28, 32, 11, 45, 15
              |30, 67, 37, 31, 43, 33, 44, 33, 28, 27, 32, 57, 50, 47, 54, 47, 35, 17, 53, 51, 34, 50, 46, 20, 34, 44, 55, 54, 58, 55, 56, 32, 53, 36, 47, 31, 39, 34, 68, 30, 21, 36, 38, 31, 43, 53, 40, 43, 20, 52, 43, 47, 42, 24, 59, 17, 29, 6, 46, 38, 16, 28, 64, 55, 22, 22, 39, 37, 26, 56, 41, 50, 41, 17, 41, 18, 42, 23, 62, 30, 32, 29, 65, 61, 48, 62, 30, 65, 20, 35, 39, 14, 31, 37, 30, 43, 58, 18, 54, 33
              |78, 79, 68, 67, 57, 70, 11, 51, 27, 50, 56, 54, 101, 96, 22, 97, 30, 49, 30, 16, 77, 100, 43, 49, 83, 8, 105, 80, 52, 67, 7, 70, 10, 16, 49, 26, 89, 41, 18, 29, 71, 76, 15, 24, 65, 68, 68, 25, 51, 20, 34, 97, 58, 68, 57, 47, 59, 50, 12, 44, 34, 66, 17, 35, 68, 72, 80, 66, 45, 45, 89, 78, 84, 66, 87, 54, 92, 39, 37, 79, 82, 33, 85, 11, 36, 14, 75, 84, 48, 65, 28, 63, 81, 83, 73, 8, 24, 39, 12, 21
              |40, 104, 74, 68, 79, 70, 47, 68, 33, 63, 69, 90, 68, 70, 47, 61, 62, 54, 40, 48, 31, 60, 77, 18, 60, 50, 69, 91, 89, 91, 65, 69, 54, 52, 18, 32, 57, 66, 74, 57, 47, 26, 55, 54, 7, 16, 11, 66, 57, 71, 71, 63, 78, 27, 27, 53, 67, 31, 47, 71, 42, 19, 75, 81, 32, 46, 74, 74, 61, 31, 71, 87, 34, 47, 72, 55, 57, 55, 86, 60, 53, 58, 102, 65, 76, 72, 32, 102, 56, 10, 64, 47, 47, 37, 66, 51, 49, 26, 68, 38
              |46, 98, 71, 66, 72, 68, 35, 62, 22, 57, 64, 81, 74, 74, 35, 68, 53, 49, 28, 36, 39, 68, 68, 16, 63, 38, 76, 88, 81, 85, 53, 67, 42, 41, 13, 21, 63, 59, 62, 48, 49, 35, 44, 44, 19, 24, 22, 57, 52, 60, 62, 69, 72, 33, 25, 48, 63, 29, 35, 63, 34, 26, 64, 71, 36, 49, 73, 71, 55, 23, 73, 84, 44, 48, 74, 52, 63, 49, 76, 62, 57, 50, 98, 53, 66, 60, 39, 98, 51, 21, 55, 47, 52, 46, 65, 39, 37, 19, 56, 27
              |74, 71, 60, 59, 49, 62, 15, 43, 26, 42, 48, 46, 95, 90, 28, 93, 22, 42, 35, 23, 75, 95, 34, 48, 77, 12, 100, 71, 44, 59, 12, 63, 17, 9, 52, 26, 84, 33, 24, 21, 65, 74, 8, 17, 65, 70, 67, 17, 44, 14, 25, 92, 50, 65, 61, 40, 52, 46, 17, 36, 29, 64, 19, 28, 64, 67, 73, 58, 37, 50, 82, 70, 81, 61, 80, 47, 87, 32, 31, 73, 77, 25, 76, 18, 28, 16, 72, 76, 41, 64, 20, 57, 76, 80, 66, 9, 31, 36, 9, 20
              |91, 88, 81, 80, 68, 83, 21, 63, 39, 63, 68, 62, 114, 110, 24, 111, 42, 62, 33, 20, 89, 113, 52, 61, 96, 20, 118, 91, 60, 77, 9, 83, 14, 29, 56, 37, 103, 53, 7, 42, 84, 87, 28, 37, 74, 76, 78, 35, 64, 27, 44, 110, 69, 80, 62, 60, 72, 63, 21, 55, 48, 77, 14, 42, 81, 85, 93, 78, 58, 49, 102, 90, 96, 80, 100, 67, 105, 52, 42, 92, 96, 46, 95, 3, 45, 12, 87, 94, 61, 75, 39, 77, 94, 95, 86, 21, 24, 51, 18, 33
              |37, 74, 46, 41, 48, 44, 33, 38, 16, 33, 39, 59, 61, 58, 42, 57, 33, 24, 41, 40, 38, 59, 47, 13, 45, 34, 65, 63, 60, 61, 47, 43, 42, 29, 37, 20, 49, 36, 59, 28, 32, 37, 31, 26, 37, 46, 36, 39, 28, 47, 42, 57, 48, 27, 49, 23, 38, 9, 35, 40, 12, 27, 57, 53, 27, 32, 50, 46, 31, 44, 53, 59, 44, 28, 53, 27, 51, 25, 59, 42, 42, 28, 73, 51, 47, 54, 34, 73, 26, 31, 36, 26, 40, 42, 42, 33, 46, 6, 47, 22
              |27, 81, 51, 45, 56, 47, 42, 46, 25, 40, 46, 69, 54, 52, 49, 49, 44, 31, 46, 48, 26, 50, 57, 6, 41, 44, 57, 68, 70, 69, 58, 46, 51, 40, 35, 27, 42, 46, 70, 39, 27, 26, 43, 38, 29, 39, 26, 51, 34, 58, 53, 49, 56, 16, 47, 31, 43, 8, 44, 50, 23, 16, 67, 64, 17, 27, 51, 51, 39, 45, 50, 64, 33, 26, 51, 32, 43, 35, 71, 39, 36, 39, 79, 61, 58, 64, 23, 79, 34, 22, 47, 25, 32, 31, 43, 43, 53, 13, 58, 31
              |36, 52, 20, 14, 30, 16, 55, 21, 41, 16, 18, 48, 47, 40, 67, 47, 34, 10, 67, 63, 45, 52, 39, 37, 27, 54, 53, 37, 49, 41, 63, 15, 63, 43, 64, 45, 38, 28, 75, 32, 20, 49, 44, 35, 59, 70, 56, 43, 9, 54, 40, 45, 29, 36, 77, 12, 14, 23, 57, 30, 25, 43, 69, 52, 32, 22, 23, 20, 19, 72, 31, 33, 52, 15, 29, 5, 42, 21, 59, 22, 31, 28, 48, 69, 44, 67, 40, 49, 12, 51, 38, 12, 34, 46, 15, 52, 71, 34, 58, 45
              |72, 56, 49, 49, 35, 52, 28, 31, 32, 31, 36, 32, 90, 84, 42, 88, 10, 33, 48, 36, 75, 92, 20, 50, 70, 25, 95, 58, 30, 45, 24, 52, 32, 13, 61, 34, 80, 20, 34, 12, 60, 75, 11, 11, 71, 78, 72, 3, 35, 11, 11, 87, 36, 65, 72, 31, 40, 45, 30, 22, 27, 65, 27, 17, 63, 62, 63, 46, 26, 61, 74, 57, 82, 55, 71, 39, 83, 23, 22, 65, 72, 15, 62, 31, 14, 25, 71, 62, 32, 68, 6, 52, 73, 79, 56, 21, 45, 39, 16, 28
              |30, 66, 36, 30, 42, 33, 43, 32, 27, 26, 31, 56, 51, 47, 54, 48, 34, 16, 53, 51, 35, 51, 45, 21, 34, 44, 55, 53, 57, 54, 56, 32, 52, 35, 48, 31, 40, 33, 68, 30, 21, 37, 37, 30, 44, 54, 41, 42, 19, 51, 42, 48, 41, 25, 60, 16, 28, 7, 46, 37, 16, 29, 64, 54, 23, 22, 38, 36, 25, 56, 41, 49, 42, 17, 41, 17, 42, 22, 61, 31, 33, 28, 64, 60, 47, 61, 31, 64, 19, 36, 38, 14, 32, 38, 30, 42, 58, 18, 53, 33
              |56, 74, 54, 51, 49, 54, 15, 40, 7, 37, 44, 54, 79, 76, 27, 76, 25, 32, 29, 23, 56, 78, 41, 28, 62, 15, 83, 69, 53, 61, 28, 54, 24, 12, 37, 9, 68, 33, 40, 21, 50, 55, 15, 16, 47, 53, 49, 27, 35, 31, 33, 76, 49, 46, 48, 30, 45, 28, 17, 38, 15, 44, 38, 41, 46, 51, 63, 53, 33, 39, 69, 66, 62, 46, 68, 37, 70, 26, 47, 59, 61, 23, 77, 32, 38, 35, 53, 76, 33, 45, 26, 43, 59, 61, 55, 14, 31, 17, 29, 5
              |33, 99, 69, 62, 74, 64, 49, 64, 33, 58, 64, 86, 61, 63, 50, 54, 60, 49, 44, 51, 24, 53, 74, 14, 53, 51, 63, 86, 87, 87, 66, 63, 56, 51, 25, 33, 50, 63, 76, 54, 40, 20, 54, 52, 11, 21, 9, 65, 52, 71, 69, 56, 74, 20, 34, 49, 61, 26, 49, 67, 39, 12, 77, 79, 25, 40, 67, 69, 57, 37, 64, 81, 28, 41, 65, 50, 50, 52, 85, 53, 46, 55, 97, 67, 74, 73, 25, 97, 51, 5, 62, 41, 40, 31, 59, 52, 53, 24, 68, 39
              |25, 103, 71, 64, 80, 65, 62, 70, 46, 64, 68, 94, 52, 55, 64, 44, 69, 54, 58, 65, 13, 42, 82, 24, 49, 64, 52, 88, 95, 92, 79, 64, 70, 63, 38, 47, 42, 71, 90, 64, 37, 7, 66, 63, 17, 27, 10, 76, 57, 82, 78, 47, 79, 16, 45, 55, 65, 31, 63, 75, 48, 9, 90, 89, 21, 36, 66, 72, 63, 50, 59, 83, 15, 40, 62, 54, 41, 59, 96, 50, 39, 64, 99, 81, 83, 86, 17, 100, 57, 9, 72, 41, 33, 19, 59, 65, 67, 35, 81, 52
              |53, 108, 82, 76, 83, 79, 41, 73, 31, 68, 74, 91, 81, 82, 37, 75, 63, 60, 29, 39, 44, 74, 78, 26, 72, 44, 83, 98, 91, 96, 58, 78, 46, 50, 5, 29, 70, 69, 67, 58, 58, 39, 53, 54, 17, 16, 23, 65, 63, 68, 71, 76, 83, 40, 15, 59, 73, 39, 40, 73, 45, 32, 69, 80, 44, 58, 83, 81, 65, 17, 82, 94, 48, 58, 83, 62, 70, 59, 84, 71, 65, 60, 108, 57, 76, 66, 45, 108, 62, 23, 64, 57, 60, 51, 75, 46, 38, 30, 63, 35
              |50, 57, 36, 33, 31, 36, 32, 22, 23, 18, 25, 40, 69, 63, 46, 67, 14, 14, 48, 41, 54, 70, 28, 33, 49, 31, 74, 50, 40, 44, 39, 36, 40, 19, 52, 27, 58, 17, 51, 10, 39, 55, 20, 11, 56, 64, 55, 22, 17, 32, 23, 66, 31, 44, 64, 12, 26, 24, 35, 21, 8, 46, 46, 35, 42, 40, 46, 34, 14, 57, 55, 47, 61, 34, 53, 20, 61, 7, 41, 45, 51, 9, 58, 45, 28, 43, 50, 58, 14, 51, 18, 30, 51, 58, 38, 28, 50, 23, 35, 24
              |72, 23, 25, 30, 6, 32, 60, 15, 57, 21, 18, 14, 79, 71, 75, 81, 27, 31, 79, 69, 81, 86, 15, 65, 59, 58, 85, 26, 16, 11, 58, 34, 66, 44, 87, 60, 72, 18, 67, 31, 56, 83, 43, 36, 89, 98, 87, 32, 28, 41, 23, 79, 8, 71, 98, 30, 24, 54, 63, 14, 42, 76, 58, 29, 67, 58, 42, 22, 22, 90, 58, 27, 87, 51, 54, 32, 76, 27, 35, 54, 66, 28, 28, 65, 23, 57, 75, 27, 28, 83, 29, 48, 69, 82, 40, 54, 78, 57, 49, 56
              |47, 108, 79, 73, 82, 76, 46, 72, 34, 67, 73, 92, 75, 77, 43, 68, 64, 58, 35, 45, 38, 67, 79, 23, 67, 48, 76, 96, 92, 95, 63, 75, 51, 52, 12, 32, 64, 69, 72, 59, 54, 32, 55, 55, 10, 12, 16, 68, 62, 71, 73, 70, 82, 34, 20, 57, 71, 36, 45, 74, 45, 26, 74, 82, 38, 53, 80, 79, 65, 25, 77, 92, 40, 54, 79, 60, 64, 59, 87, 67, 60, 60, 107, 63, 77, 71, 39, 107, 60, 16, 66, 53, 54, 44, 72, 50, 45, 29, 67, 38
              |11, 97, 63, 55, 75, 56, 69, 65, 52, 59, 63, 91, 36, 40, 74, 29, 69, 50, 69, 74, 2, 27, 80, 30, 35, 71, 37, 79, 92, 86, 85, 55, 78, 67, 51, 54, 27, 68, 97, 65, 27, 8, 70, 64, 32, 42, 25, 77, 52, 85, 78, 31, 74, 11, 59, 51, 58, 31, 71, 72, 49, 15, 95, 89, 13, 25, 55, 64, 60, 63, 45, 74, 7, 31, 49, 48, 26, 58, 96, 38, 25, 64, 91, 88, 83, 92, 5, 92, 53, 23, 73, 33, 19, 4, 49, 71, 77, 40, 85, 58
              |54, 120, 91, 85, 95, 87, 57, 85, 46, 79, 85, 105, 81, 84, 52, 73, 77, 70, 44, 55, 42, 71, 92, 35, 76, 60, 81, 108, 105, 108, 74, 86, 62, 65, 20, 45, 71, 82, 83, 72, 63, 36, 68, 68, 13, 2, 19, 81, 74, 84, 86, 76, 95, 42, 19, 70, 84, 48, 56, 87, 58, 33, 85, 95, 47, 62, 90, 91, 77, 30, 86, 104, 43, 64, 88, 72, 70, 72, 100, 76, 67, 73, 119, 73, 90, 82, 45, 119, 73, 22, 79, 64, 61, 48, 82, 62, 53, 42, 79, 50
              |80, 9, 28, 35, 25, 34, 84, 34, 78, 38, 32, 33, 79, 69, 98, 83, 51, 47, 102, 93, 91, 89, 39, 82, 61, 82, 85, 13, 36, 14, 83, 36, 90, 68, 107, 82, 75, 41, 91, 54, 64, 95, 67, 60, 106, 116, 103, 56, 43, 65, 48, 80, 24, 83, 119, 47, 34, 69, 87, 37, 62, 90, 82, 52, 79, 66, 40, 27, 41, 112, 56, 18, 97, 60, 51, 45, 79, 48, 57, 56, 71, 51, 4, 90, 47, 81, 86, 3, 45, 98, 53, 58, 76, 91, 43, 78, 102, 76, 74, 79
              |43, 82, 56, 51, 57, 54, 28, 47, 10, 42, 48, 66, 69, 67, 34, 64, 38, 34, 31, 32, 40, 65, 53, 12, 54, 29, 72, 73, 66, 70, 44, 53, 36, 28, 27, 12, 57, 43, 55, 33, 41, 39, 31, 29, 31, 39, 32, 42, 37, 47, 47, 64, 57, 31, 39, 33, 48, 18, 29, 48, 19, 28, 54, 56, 32, 41, 61, 56, 39, 34, 63, 69, 47, 38, 63, 37, 59, 33, 62, 52, 51, 34, 82, 46, 51, 51, 38, 82, 36, 28, 40, 36, 47, 46, 52, 30, 38, 4, 45, 17
              |92, 64, 66, 67, 49, 70, 37, 48, 48, 50, 54, 37, 110, 104, 48, 109, 30, 54, 56, 43, 95, 113, 31, 69, 91, 34, 116, 72, 34, 55, 22, 71, 36, 30, 75, 49, 100, 38, 25, 33, 81, 95, 27, 32, 88, 93, 90, 21, 55, 11, 25, 108, 50, 85, 84, 52, 59, 65, 39, 38, 47, 85, 15, 17, 84, 83, 81, 63, 46, 71, 94, 72, 102, 76, 91, 59, 103, 43, 14, 86, 93, 35, 73, 28, 23, 16, 91, 72, 52, 86, 25, 72, 93, 99, 76, 31, 50, 58, 15, 43
              |69, 45, 38, 39, 23, 42, 38, 20, 38, 22, 25, 22, 84, 76, 53, 83, 7, 27, 58, 48, 74, 87, 9, 52, 63, 36, 89, 46, 21, 33, 36, 43, 43, 23, 69, 41, 74, 9, 46, 12, 55, 75, 21, 16, 75, 83, 75, 10, 27, 21, 4, 82, 24, 64, 80, 25, 31, 44, 41, 10, 27, 66, 38, 16, 61, 57, 53, 35, 18, 70, 66, 45, 81, 50, 63, 31, 78, 17, 23, 58, 67, 11, 50, 43, 8, 36, 69, 49, 24, 71, 7, 47, 68, 77, 48, 32, 56, 42, 28, 36
              |87, 2, 35, 42, 27, 41, 85, 37, 81, 42, 36, 29, 87, 78, 99, 91, 52, 51, 104, 94, 98, 97, 38, 87, 69, 82, 93, 21, 32, 14, 82, 43, 90, 69, 110, 85, 83, 42, 90, 55, 71, 102, 68, 61, 111, 120, 108, 56, 48, 64, 47, 88, 27, 89, 122, 52, 39, 74, 88, 38, 65, 95, 80, 49, 85, 73, 48, 33, 45, 114, 64, 26, 104, 66, 59, 51, 87, 51, 53, 64, 78, 52, 11, 89, 46, 80, 92, 10, 49, 103, 53, 64, 83, 98, 50, 79, 103, 80, 73, 81
              |39, 50, 18, 13, 27, 16, 53, 18, 41, 13, 15, 45, 50, 43, 66, 50, 31, 8, 67, 62, 48, 55, 36, 38, 30, 53, 56, 35, 46, 38, 61, 15, 62, 41, 65, 45, 41, 25, 73, 29, 24, 51, 42, 33, 61, 71, 58, 40, 6, 51, 37, 48, 26, 39, 77, 10, 11, 25, 56, 27, 24, 45, 67, 49, 35, 25, 24, 18, 16, 72, 33, 31, 55, 18, 31, 2, 45, 18, 56, 25, 35, 26, 46, 67, 41, 64, 43, 47, 9, 53, 35, 15, 37, 49, 16, 50, 70, 34, 56, 44
              |8, 92, 59, 51, 70, 52, 67, 61, 50, 55, 59, 87, 35, 38, 73, 28, 66, 46, 68, 72, 5, 27, 77, 28, 32, 69, 36, 75, 88, 82, 83, 51, 76, 64, 51, 52, 25, 64, 94, 61, 23, 11, 67, 61, 33, 44, 26, 73, 48, 82, 74, 30, 70, 8, 60, 47, 54, 27, 69, 68, 46, 14, 92, 86, 9, 21, 51, 60, 56, 63, 42, 70, 11, 27, 45, 44, 24, 54, 93, 34, 22, 60, 87, 86, 79, 89, 1, 87, 49, 24, 69, 29, 16, 7, 45, 68, 76, 38, 82, 56
              |13, 85, 52, 45, 62, 47, 57, 53, 40, 47, 51, 78, 41, 41, 64, 35, 56, 37, 60, 62, 13, 35, 67, 19, 32, 59, 43, 69, 79, 74, 72, 45, 66, 54, 45, 42, 29, 55, 84, 51, 19, 16, 56, 51, 31, 42, 25, 63, 40, 72, 64, 36, 62, 3, 55, 38, 47, 17, 59, 59, 35, 11, 82, 76, 3, 18, 47, 53, 47, 56, 42, 64, 20, 21, 44, 36, 30, 44, 83, 32, 24, 50, 81, 76, 69, 79, 9, 81, 40, 21, 59, 22, 19, 17, 40, 58, 67, 28, 72, 46
              |70, 38, 34, 36, 17, 38, 45, 16, 44, 20, 22, 17, 83, 75, 60, 83, 13, 27, 65, 54, 76, 87, 4, 57, 62, 43, 88, 40, 16, 26, 43, 40, 50, 29, 74, 47, 74, 8, 52, 17, 56, 78, 28, 22, 80, 88, 79, 16, 26, 26, 8, 81, 18, 66, 86, 26, 28, 47, 48, 6, 31, 69, 43, 17, 63, 58, 50, 31, 17, 76, 64, 40, 83, 50, 60, 31, 77, 19, 24, 57, 67, 15, 44, 50, 9, 42, 71, 43, 24, 75, 13, 47, 69, 79, 45, 39, 63, 47, 34, 42
              |83, 8, 30, 37, 26, 36, 85, 36, 80, 40, 34, 33, 81, 71, 100, 85, 53, 49, 104, 95, 93, 91, 41, 85, 63, 83, 87, 15, 36, 15, 84, 38, 91, 70, 109, 84, 77, 42, 93, 56, 66, 98, 69, 61, 108, 118, 105, 58, 45, 67, 49, 82, 26, 85, 121, 50, 36, 72, 89, 39, 64, 92, 83, 53, 81, 68, 42, 29, 43, 114, 58, 20, 100, 62, 53, 47, 81, 50, 57, 59, 73, 52, 4, 91, 48, 83, 88, 3, 47, 100, 55, 60, 78, 93, 45, 80, 104, 78, 75, 81
              |21, 67, 33, 26, 45, 27, 58, 36, 41, 30, 33, 63, 37, 33, 68, 35, 45, 22, 66, 65, 30, 39, 53, 29, 20, 58, 42, 50, 64, 56, 70, 26, 67, 49, 58, 45, 26, 41, 82, 41, 7, 34, 51, 43, 49, 60, 44, 54, 23, 64, 52, 34, 44, 22, 70, 24, 28, 17, 60, 44, 29, 30, 77, 64, 18, 9, 29, 34, 32, 68, 28, 45, 37, 3, 28, 19, 29, 32, 72, 17, 19, 39, 62, 74, 57, 75, 25, 62, 25, 40, 49, 3, 20, 31, 21, 56, 72, 31, 67, 47
              |78, 17, 26, 33, 29, 32, 88, 36, 81, 40, 33, 40, 74, 64, 102, 78, 56, 48, 106, 97, 89, 85, 45, 83, 57, 86, 80, 9, 43, 20, 88, 34, 94, 72, 108, 85, 71, 45, 97, 58, 61, 94, 71, 63, 106, 116, 102, 61, 44, 71, 53, 75, 28, 82, 121, 49, 34, 69, 91, 42, 64, 88, 88, 58, 77, 63, 36, 26, 44, 114, 51, 14, 95, 58, 46, 45, 75, 51, 63, 53, 67, 54, 4, 95, 53, 87, 84, 6, 46, 98, 58, 56, 72, 88, 40, 82, 106, 78, 79, 82
              |27, 102, 70, 63, 78, 65, 58, 68, 42, 62, 67, 92, 54, 57, 60, 47, 66, 52, 54, 61, 16, 45, 80, 20, 50, 60, 55, 87, 92, 90, 75, 63, 66, 60, 34, 42, 44, 68, 86, 61, 38, 10, 63, 59, 14, 25, 7, 72, 55, 79, 75, 49, 77, 16, 41, 52, 64, 29, 59, 72, 45, 8, 86, 86, 21, 37, 66, 70, 61, 46, 60, 82, 19, 40, 62, 52, 43, 57, 92, 50, 40, 61, 98, 77, 80, 82, 18, 99, 55, 5, 69, 40, 34, 22, 59, 61, 63, 32, 77, 48
              |96, 71, 72, 73, 56, 76, 36, 54, 49, 56, 60, 44, 115, 109, 45, 113, 35, 59, 54, 40, 98, 117, 38, 71, 96, 33, 120, 79, 41, 62, 20, 77, 33, 32, 74, 50, 105, 44, 19, 37, 86, 97, 29, 36, 89, 93, 91, 26, 60, 15, 31, 113, 57, 88, 82, 57, 65, 69, 37, 44, 50, 87, 10, 24, 87, 87, 87, 69, 51, 70, 99, 79, 105, 81, 97, 64, 108, 48, 21, 91, 98, 40, 80, 24, 30, 12, 94, 79, 57, 88, 31, 77, 98, 102, 82, 31, 47, 60, 14, 44
              |83, 92, 80, 78, 70, 81, 14, 64, 31, 62, 68, 67, 108, 104, 12, 104, 43, 59, 21, 9, 81, 105, 56, 52, 91, 14, 112, 92, 65, 81, 15, 81, 5, 27, 44, 28, 96, 54, 19, 41, 78, 78, 27, 36, 63, 64, 67, 38, 62, 33, 47, 104, 71, 72, 50, 57, 71, 56, 12, 57, 43, 68, 24, 48, 73, 79, 91, 78, 57, 37, 98, 91, 86, 74, 97, 65, 98, 51, 50, 88, 89, 45, 98, 10, 49, 22, 79, 97, 59, 65, 41, 72, 87, 86, 83, 17, 13, 43, 24, 25
              |41, 93, 66, 60, 68, 62, 36, 58, 21, 52, 59, 78, 68, 68, 38, 62, 50, 44, 33, 38, 35, 62, 65, 10, 57, 39, 71, 82, 78, 81, 53, 61, 44, 40, 19, 21, 57, 55, 64, 45, 43, 31, 43, 42, 19, 26, 21, 54, 47, 59, 59, 64, 68, 28, 30, 43, 57, 23, 37, 59, 30, 22, 64, 69, 31, 43, 67, 65, 50, 29, 67, 78, 40, 42, 68, 46, 57, 44, 74, 56, 51, 46, 93, 55, 64, 61, 34, 93, 46, 18, 52, 41, 47, 41, 59, 40, 41, 15, 56, 27
              |10, 77, 43, 36, 57, 36, 68, 49, 51, 43, 45, 75, 26, 25, 76, 23, 58, 35, 73, 74, 22, 26, 66, 33, 16, 69, 30, 59, 77, 67, 81, 34, 77, 61, 61, 54, 15, 54, 93, 54, 7, 28, 63, 55, 47, 58, 41, 67, 36, 76, 65, 22, 56, 18, 72, 37, 40, 25, 70, 57, 41, 27, 89, 77, 14, 5, 34, 45, 45, 72, 26, 53, 27, 12, 29, 32, 17, 45, 85, 17, 8, 52, 71, 85, 70, 86, 17, 71, 38, 38, 62, 16, 7, 21, 28, 67, 80, 39, 79, 56
              |52, 50, 30, 28, 25, 31, 37, 15, 29, 12, 19, 35, 68, 62, 51, 67, 13, 11, 54, 47, 57, 71, 23, 38, 48, 36, 73, 44, 35, 37, 43, 32, 45, 23, 59, 33, 58, 11, 54, 10, 39, 59, 24, 14, 61, 70, 60, 22, 13, 33, 20, 66, 25, 47, 71, 9, 21, 28, 40, 16, 14, 50, 48, 32, 45, 41, 42, 28, 8, 63, 52, 41, 64, 34, 50, 17, 61, 1, 39, 43, 51, 7, 52, 49, 25, 46, 53, 51, 10, 56, 17, 30, 52, 60, 35, 33, 55, 29, 37, 30
              |36, 53, 19, 13, 38, 12, 72, 33, 58, 29, 27, 57, 36, 27, 84, 38, 50, 27, 84, 81, 48, 44, 52, 50, 16, 72, 42, 33, 60, 45, 80, 10, 81, 60, 78, 62, 30, 42, 92, 48, 21, 53, 61, 52, 70, 81, 65, 59, 25, 70, 55, 36, 36, 42, 90, 29, 21, 37, 75, 43, 42, 50, 86, 66, 37, 22, 8, 22, 34, 87, 15, 28, 54, 19, 12, 22, 34, 37, 73, 11, 25, 45, 45, 86, 58, 84, 43, 46, 28, 61, 54, 19, 31, 47, 4, 69, 88, 50, 75, 62
              |26, 60, 26, 19, 40, 20, 62, 32, 46, 27, 28, 59, 36, 30, 73, 36, 45, 21, 72, 70, 37, 40, 51, 36, 16, 62, 42, 42, 60, 50, 72, 18, 71, 51, 65, 50, 27, 39, 84, 42, 10, 42, 53, 44, 56, 67, 52, 54, 21, 64, 51, 34, 39, 30, 77, 23, 23, 24, 64, 42, 32, 37, 79, 63, 25, 12, 21, 28, 30, 74, 23, 38, 43, 6, 22, 16, 30, 31, 70, 12, 20, 39, 55, 77, 55, 76, 32, 55, 23, 48, 49, 5, 23, 37, 13, 60, 77, 37, 68, 51
              |21, 69, 36, 29, 46, 31, 55, 37, 38, 31, 35, 63, 40, 36, 64, 37, 44, 22, 63, 62, 28, 40, 53, 25, 23, 55, 44, 53, 64, 58, 67, 29, 64, 47, 54, 41, 28, 41, 79, 40, 10, 32, 49, 41, 45, 56, 40, 52, 24, 62, 52, 36, 46, 20, 65, 24, 30, 13, 57, 45, 27, 26, 75, 64, 16, 11, 33, 37, 32, 64, 32, 48, 35, 7, 33, 20, 31, 31, 71, 21, 21, 38, 64, 72, 56, 72, 23, 65, 25, 36, 48, 6, 21, 30, 25, 54, 68, 27, 64, 43
              |70, 20, 21, 27, 6, 28, 64, 16, 60, 21, 16, 19, 76, 66, 79, 78, 32, 31, 83, 74, 79, 83, 21, 66, 56, 62, 82, 20, 22, 7, 64, 29, 71, 49, 89, 63, 69, 21, 73, 35, 54, 83, 48, 40, 90, 100, 88, 37, 28, 47, 29, 75, 6, 70, 101, 31, 21, 54, 68, 18, 44, 76, 64, 35, 66, 56, 38, 18, 23, 93, 54, 21, 86, 49, 49, 31, 73, 30, 41, 50, 63, 31, 23, 71, 29, 63, 74, 22, 28, 83, 34, 46, 67, 81, 36, 59, 83, 59, 55, 60
              |53, 91, 67, 63, 65, 65, 22, 56, 11, 51, 58, 72, 80, 78, 24, 75, 43, 44, 20, 23, 49, 76, 59, 21, 66, 25, 83, 83, 71, 78, 39, 65, 29, 29, 19, 9, 68, 50, 49, 38, 52, 46, 32, 34, 32, 36, 35, 45, 48, 47, 51, 76, 65, 41, 31, 43, 58, 30, 22, 55, 27, 36, 50, 59, 43, 53, 72, 66, 48, 23, 75, 80, 54, 50, 75, 48, 70, 41, 64, 64, 62, 40, 92, 40, 55, 47, 48, 92, 46, 33, 44, 48, 59, 55, 64, 26, 27, 16, 43, 14
              |49, 46, 19, 18, 38, 16, 83, 37, 70, 36, 31, 57, 42, 32, 96, 47, 57, 37, 97, 92, 62, 53, 55, 64, 26, 82, 48, 25, 60, 41, 89, 15, 91, 70, 92, 75, 40, 47, 101, 57, 35, 67, 70, 61, 84, 95, 79, 66, 34, 77, 60, 43, 37, 57, 104, 39, 27, 51, 86, 48, 54, 65, 94, 70, 52, 36, 7, 22, 41, 101, 19, 20, 67, 33, 14, 32, 44, 46, 77, 23, 37, 53, 36, 96, 62, 92, 57, 37, 37, 75, 61, 33, 43, 60, 15, 80, 100, 63, 83, 74
              |65, 117, 92, 86, 91, 89, 42, 81, 38, 77, 83, 98, 93, 94, 34, 86, 69, 69, 25, 38, 56, 85, 85, 37, 84, 46, 95, 108, 97, 104, 58, 88, 45, 54, 9, 34, 82, 76, 65, 64, 70, 51, 57, 60, 27, 22, 34, 70, 73, 71, 77, 88, 91, 52, 4, 68, 83, 50, 41, 81, 53, 44, 69, 84, 56, 70, 94, 91, 74, 9, 94, 104, 59, 69, 95, 72, 82, 67, 88, 83, 77, 67, 117, 56, 81, 66, 57, 117, 71, 35, 70, 68, 72, 62, 86, 48, 35, 39, 65, 39
              |72, 90, 74, 71, 66, 74, 7, 59, 21, 56, 63, 67, 98, 95, 8, 93, 40, 52, 14, 3, 69, 95, 54, 41, 82, 10, 101, 87, 65, 78, 21, 74, 8, 23, 34, 17, 86, 50, 29, 37, 68, 67, 24, 31, 52, 54, 56, 38, 55, 35, 46, 93, 67, 60, 42, 50, 65, 46, 4, 54, 35, 57, 32, 50, 62, 69, 83, 72, 51, 29, 89, 85, 75, 65, 88, 57, 88, 45, 52, 78, 79, 40, 94, 20, 49, 29, 67, 94, 52, 54, 39, 62, 77, 75, 75, 13, 11, 32, 28, 15
              |55, 60, 41, 39, 35, 42, 26, 26, 20, 23, 30, 41, 74, 69, 40, 72, 12, 21, 43, 36, 58, 75, 28, 34, 55, 25, 79, 55, 40, 47, 33, 42, 34, 13, 50, 23, 64, 19, 45, 7, 45, 58, 14, 6, 56, 64, 56, 18, 23, 27, 21, 71, 35, 47, 62, 18, 32, 28, 29, 23, 9, 49, 40, 32, 46, 46, 52, 39, 19, 53, 61, 52, 65, 40, 59, 26, 67, 12, 38, 51, 57, 9, 62, 39, 26, 37, 54, 62, 20, 52, 15, 36, 56, 62, 45, 22, 44, 23, 29, 20
              |12, 76, 42, 35, 54, 36, 61, 45, 44, 39, 42, 71, 33, 31, 70, 29, 52, 31, 67, 68, 22, 32, 62, 27, 20, 62, 37, 58, 73, 65, 74, 34, 70, 54, 55, 47, 21, 49, 87, 48, 7, 26, 57, 49, 43, 54, 37, 61, 32, 70, 60, 29, 53, 15, 66, 32, 37, 18, 63, 53, 35, 23, 83, 72, 10, 6, 35, 43, 41, 66, 30, 53, 28, 10, 32, 28, 24, 40, 79, 20, 15, 47, 70, 79, 65, 80, 16, 71, 34, 34, 56, 12, 13, 22, 29, 61, 73, 32, 72, 50
              |81, 40, 43, 47, 25, 49, 47, 27, 50, 31, 33, 13, 94, 86, 62, 94, 19, 38, 68, 56, 87, 98, 8, 65, 73, 45, 99, 47, 11, 30, 41, 50, 51, 33, 80, 53, 85, 19, 48, 25, 67, 88, 31, 28, 88, 96, 88, 17, 38, 22, 10, 92, 26, 76, 91, 37, 38, 57, 50, 17, 40, 79, 38, 8, 74, 69, 60, 41, 28, 81, 75, 48, 94, 61, 71, 42, 89, 29, 14, 68, 78, 24, 48, 48, 6, 38, 82, 47, 35, 84, 17, 58, 80, 90, 56, 41, 65, 55, 31, 48
              |58, 30, 8, 13, 11, 14, 63, 12, 55, 14, 8, 31, 62, 53, 78, 64, 33, 22, 80, 73, 67, 70, 28, 57, 42, 62, 68, 17, 34, 19, 66, 16, 71, 48, 83, 59, 56, 22, 77, 34, 41, 71, 48, 39, 81, 91, 78, 41, 18, 52, 34, 62, 10, 59, 95, 23, 9, 44, 66, 21, 38, 65, 69, 43, 55, 43, 25, 5, 19, 88, 41, 15, 74, 36, 36, 20, 60, 25, 50, 37, 50, 30, 27, 73, 36, 67, 62, 27, 20, 73, 36, 34, 54, 68, 23, 59, 81, 52, 59, 57
              |28, 64, 30, 24, 48, 23, 76, 42, 60, 38, 37, 68, 25, 17, 86, 27, 57, 33, 85, 83, 40, 33, 61, 48, 5, 76, 31, 43, 70, 56, 86, 21, 84, 65, 76, 64, 19, 50, 98, 55, 15, 46, 67, 58, 65, 76, 59, 67, 33, 77, 63, 25, 47, 36, 88, 36, 31, 36, 78, 52, 46, 45, 92, 75, 31, 16, 17, 33, 42, 86, 9, 38, 45, 16, 10, 28, 23, 44, 82, 2, 15, 52, 56, 91, 67, 90, 35, 57, 35, 55, 62, 18, 21, 38, 14, 74, 90, 50, 82, 65
              |24, 73, 42, 35, 49, 38, 47, 39, 30, 33, 38, 64, 47, 44, 56, 43, 41, 24, 54, 54, 27, 45, 53, 16, 32, 48, 51, 59, 65, 61, 61, 36, 56, 41, 45, 33, 35, 41, 73, 37, 18, 29, 44, 37, 37, 48, 34, 49, 27, 58, 50, 43, 49, 17, 57, 24, 35, 4, 49, 45, 22, 21, 70, 62, 15, 19, 41, 42, 33, 54, 41, 54, 34, 16, 42, 24, 37, 30, 69, 30, 29, 36, 70, 65, 55, 67, 23, 70, 27, 29, 45, 15, 26, 31, 33, 47, 60, 19, 59, 36
              |20, 68, 35, 28, 46, 29, 56, 37, 40, 31, 34, 63, 38, 34, 66, 35, 45, 23, 64, 64, 29, 39, 54, 27, 21, 57, 43, 52, 65, 57, 69, 28, 65, 48, 56, 43, 27, 41, 81, 41, 8, 33, 50, 43, 46, 57, 42, 54, 24, 63, 52, 35, 45, 21, 67, 24, 30, 15, 59, 45, 28, 28, 76, 64, 16, 9, 31, 36, 33, 65, 30, 47, 36, 5, 31, 20, 30, 32, 72, 19, 20, 39, 64, 73, 57, 74, 24, 64, 25, 38, 49, 5, 20, 30, 23, 55, 70, 29, 66, 45
              |34, 75, 47, 42, 50, 44, 36, 40, 18, 34, 40, 62, 59, 56, 44, 54, 36, 25, 42, 42, 34, 56, 50, 11, 44, 37, 62, 64, 62, 63, 50, 43, 45, 32, 36, 22, 47, 39, 62, 31, 30, 34, 34, 30, 34, 44, 33, 43, 29, 50, 45, 55, 50, 24, 48, 25, 39, 7, 38, 43, 15, 24, 60, 56, 24, 30, 50, 47, 33, 44, 52, 60, 41, 27, 52, 28, 49, 28, 63, 41, 40, 31, 74, 54, 50, 57, 31, 74, 28, 29, 39, 25, 38, 39, 42, 36, 48, 7, 50, 24
              |59, 98, 76, 71, 73, 74, 24, 64, 19, 60, 66, 79, 87, 86, 20, 81, 50, 53, 14, 22, 54, 82, 66, 28, 74, 27, 89, 91, 78, 86, 41, 73, 29, 35, 14, 16, 75, 58, 49, 45, 60, 50, 38, 41, 32, 34, 37, 51, 56, 52, 58, 82, 73, 47, 24, 51, 67, 38, 23, 62, 36, 41, 52, 65, 49, 60, 81, 75, 56, 14, 83, 88, 59, 58, 83, 57, 76, 49, 69, 72, 69, 48, 100, 40, 62, 49, 53, 100, 54, 35, 50, 56, 65, 60, 73, 30, 23, 24, 46, 20
              |21, 100, 67, 60, 76, 61, 61, 66, 44, 60, 65, 91, 48, 51, 64, 41, 66, 50, 59, 64, 10, 39, 79, 22, 44, 63, 49, 84, 91, 88, 78, 60, 69, 61, 39, 45, 38, 67, 89, 61, 33, 5, 64, 60, 20, 31, 13, 73, 53, 80, 75, 43, 75, 11, 47, 51, 61, 28, 62, 71, 45, 6, 88, 86, 16, 32, 62, 68, 60, 52, 55, 79, 14, 36, 57, 50, 37, 56, 93, 46, 35, 61, 95, 80, 80, 85, 13, 96, 53, 11, 69, 37, 29, 16, 55, 64, 67, 33, 79, 51
              |63, 25, 11, 18, 19, 17, 75, 23, 66, 26, 19, 36, 63, 53, 89, 66, 44, 32, 92, 84, 74, 72, 37, 67, 44, 73, 69, 6, 39, 19, 77, 19, 82, 60, 93, 70, 58, 33, 87, 45, 46, 78, 59, 51, 90, 100, 86, 51, 29, 62, 44, 63, 18, 66, 105, 34, 19, 54, 78, 31, 49, 73, 79, 52, 62, 48, 23, 11, 30, 99, 40, 4, 80, 43, 35, 30, 62, 37, 58, 39, 53, 41, 18, 84, 45, 78, 69, 18, 31, 82, 47, 41, 58, 74, 25, 70, 93, 62, 69, 68
              |58, 83, 62, 59, 58, 62, 12, 49, 6, 45, 52, 62, 83, 80, 20, 79, 33, 40, 21, 17, 56, 80, 49, 28, 67, 14, 87, 77, 61, 70, 29, 62, 21, 18, 30, 4, 72, 42, 40, 29, 54, 54, 21, 24, 43, 47, 45, 34, 43, 36, 41, 79, 58, 47, 40, 38, 53, 32, 13, 46, 22, 44, 40, 48, 48, 55, 70, 61, 41, 30, 75, 74, 62, 51, 74, 44, 73, 34, 53, 64, 65, 32, 85, 31, 45, 37, 54, 85, 41, 42, 34, 48, 62, 62, 62, 15, 24, 18, 32, 4
              |82, 99, 85, 82, 76, 85, 17, 69, 31, 67, 73, 75, 108, 105, 6, 103, 49, 63, 14, 8, 78, 104, 63, 50, 92, 19, 111, 98, 73, 87, 24, 85, 11, 33, 38, 28, 96, 60, 27, 47, 79, 75, 34, 41, 58, 58, 63, 46, 66, 41, 54, 104, 77, 70, 42, 61, 75, 57, 14, 63, 46, 65, 33, 57, 72, 80, 94, 83, 62, 29, 100, 96, 84, 76, 99, 68, 98, 56, 58, 89, 90, 51, 104, 19, 57, 31, 77, 103, 63, 61, 48, 73, 87, 84, 86, 22, 4, 43, 33, 26
              |28, 68, 37, 31, 43, 33, 45, 33, 29, 27, 32, 58, 49, 45, 55, 46, 36, 18, 54, 52, 33, 49, 47, 20, 32, 46, 53, 54, 59, 56, 58, 32, 54, 37, 48, 33, 38, 35, 70, 32, 19, 35, 40, 32, 43, 53, 39, 44, 21, 54, 44, 46, 43, 23, 60, 18, 29, 6, 48, 39, 18, 27, 66, 56, 20, 20, 38, 37, 27, 57, 40, 50, 40, 16, 40, 18, 40, 24, 63, 29, 31, 30, 65, 62, 49, 63, 28, 65, 21, 35, 40, 13, 30, 36, 30, 44, 59, 19, 55, 34
              |84, 12, 32, 39, 30, 38, 89, 39, 83, 43, 37, 37, 81, 71, 104, 85, 57, 52, 108, 99, 95, 91, 45, 87, 64, 87, 87, 16, 40, 19, 88, 40, 95, 74, 112, 87, 78, 46, 97, 60, 67, 99, 72, 65, 110, 121, 107, 62, 48, 71, 53, 82, 30, 87, 124, 52, 38, 74, 92, 43, 67, 94, 87, 57, 83, 69, 42, 31, 47, 117, 58, 21, 101, 64, 53, 50, 82, 53, 61, 59, 74, 56, 3, 95, 52, 87, 90, 3, 50, 103, 59, 62, 79, 95, 46, 84, 108, 81, 79, 84
              |16, 89, 55, 48, 72, 48, 85, 64, 67, 59, 60, 91, 12, 18, 93, 5, 75, 52, 89, 91, 26, 9, 82, 48, 20, 86, 14, 68, 92, 80, 98, 46, 94, 78, 74, 70, 6, 71, 111, 72, 23, 33, 81, 73, 56, 67, 49, 84, 52, 94, 82, 7, 70, 30, 83, 54, 54, 42, 87, 74, 59, 37, 107, 94, 27, 22, 42, 57, 62, 86, 27, 63, 27, 29, 32, 48, 2, 62, 102, 25, 12, 69, 81, 103, 87, 104, 24, 82, 55, 47, 79, 32, 11, 21, 39, 85, 96, 56, 96, 73
              |30, 69, 39, 33, 44, 36, 42, 34, 26, 28, 34, 58, 52, 48, 52, 48, 35, 19, 51, 50, 34, 51, 47, 18, 35, 43, 56, 56, 59, 57, 55, 34, 51, 35, 45, 30, 40, 35, 67, 31, 22, 35, 38, 31, 41, 51, 38, 43, 22, 52, 44, 48, 44, 23, 57, 19, 31, 4, 45, 39, 16, 26, 64, 56, 21, 23, 41, 39, 28, 54, 43, 52, 41, 18, 43, 20, 43, 24, 62, 32, 33, 30, 67, 60, 49, 61, 29, 67, 22, 34, 39, 16, 32, 37, 33, 42, 56, 16, 53, 31
              |103, 77, 80, 81, 63, 84, 41, 62, 56, 64, 68, 50, 123, 117, 49, 121, 43, 67, 58, 44, 105, 124, 45, 78, 103, 38, 128, 86, 47, 69, 24, 85, 37, 39, 79, 56, 113, 51, 19, 45, 93, 104, 36, 43, 95, 98, 98, 34, 68, 23, 39, 120, 64, 95, 86, 65, 73, 76, 42, 51, 58, 94, 13, 31, 94, 95, 95, 77, 59, 74, 107, 86, 112, 88, 104, 72, 116, 56, 26, 99, 105, 48, 86, 27, 37, 16, 102, 85, 65, 94, 39, 85, 105, 110, 89, 37, 49, 67, 21, 50
              |72, 103, 84, 80, 79, 83, 22, 70, 27, 67, 74, 81, 99, 98, 11, 94, 53, 61, 2, 16, 66, 94, 69, 40, 86, 25, 102, 99, 80, 91, 36, 83, 23, 37, 22, 23, 87, 63, 42, 50, 72, 62, 39, 44, 43, 43, 49, 52, 65, 51, 60, 95, 79, 59, 27, 59, 75, 49, 20, 67, 44, 53, 47, 65, 62, 72, 91, 83, 63, 14, 94, 96, 71, 69, 94, 66, 89, 56, 68, 83, 81, 53, 106, 33, 64, 44, 66, 106, 62, 48, 53, 67, 77, 73, 82, 29, 12, 35, 43, 25
              |36, 72, 44, 39, 46, 42, 34, 36, 18, 31, 37, 58, 60, 56, 44, 56, 32, 22, 43, 41, 38, 58, 46, 15, 43, 35, 64, 61, 58, 59, 48, 41, 43, 29, 39, 21, 48, 34, 60, 27, 30, 38, 31, 26, 38, 48, 37, 39, 25, 47, 41, 56, 46, 27, 51, 21, 36, 8, 37, 39, 11, 28, 57, 52, 27, 31, 48, 44, 29, 46, 51, 57, 45, 27, 51, 25, 50, 23, 59, 40, 41, 27, 71, 52, 46, 54, 34, 71, 24, 33, 35, 24, 39, 42, 40, 34, 48, 9, 47, 23
              |39, 106, 76, 69, 81, 72, 50, 70, 36, 65, 70, 92, 67, 69, 50, 60, 65, 55, 43, 51, 29, 59, 79, 20, 60, 53, 68, 93, 92, 93, 68, 70, 57, 55, 21, 36, 56, 69, 78, 59, 47, 24, 58, 57, 4, 14, 8, 69, 59, 74, 74, 62, 80, 27, 28, 55, 68, 33, 50, 73, 44, 18, 79, 84, 31, 47, 74, 76, 63, 33, 71, 88, 32, 48, 72, 57, 56, 58, 89, 60, 52, 60, 104, 68, 78, 75, 31, 104, 58, 8, 67, 48, 47, 36, 67, 54, 52, 29, 71, 41
              |16, 94, 61, 54, 71, 56, 60, 61, 43, 55, 59, 86, 44, 46, 65, 37, 63, 46, 60, 64, 8, 36, 75, 21, 39, 62, 45, 78, 87, 83, 77, 54, 69, 59, 42, 45, 33, 63, 88, 58, 28, 7, 62, 57, 25, 35, 18, 70, 48, 77, 71, 39, 70, 6, 51, 46, 56, 24, 62, 67, 42, 5, 86, 83, 11, 26, 56, 62, 55, 54, 49, 73, 14, 30, 52, 45, 33, 52, 90, 40, 30, 57, 90, 79, 76, 83, 8, 90, 49, 15, 66, 31, 24, 14, 49, 62, 68, 31, 77, 49
              |12, 99, 65, 57, 78, 58, 76, 69, 59, 63, 66, 95, 32, 37, 81, 24, 75, 54, 76, 81, 9, 21, 85, 37, 34, 78, 31, 80, 97, 89, 92, 56, 85, 74, 58, 61, 24, 73, 104, 70, 29, 14, 76, 70, 38, 48, 31, 83, 56, 91, 83, 27, 77, 18, 66, 56, 61, 37, 78, 77, 55, 22, 102, 95, 18, 27, 55, 66, 64, 70, 44, 75, 8, 33, 48, 52, 21, 63, 102, 38, 24, 69, 93, 95, 88, 98, 11, 93, 57, 30, 78, 36, 17, 3, 50, 78, 85, 47, 92, 65
              |20, 74, 42, 35, 50, 37, 51, 41, 34, 35, 39, 66, 43, 41, 59, 39, 44, 25, 57, 57, 25, 42, 55, 18, 29, 52, 47, 59, 67, 62, 64, 35, 60, 45, 47, 37, 32, 43, 76, 40, 15, 27, 47, 40, 38, 49, 34, 52, 28, 61, 53, 39, 50, 15, 59, 26, 35, 8, 53, 47, 25, 21, 73, 65, 12, 15, 39, 42, 35, 57, 38, 54, 32, 14, 39, 24, 34, 32, 71, 27, 25, 39, 70, 68, 57, 70, 20, 70, 28, 30, 48, 13, 23, 28, 32, 50, 63, 22, 63, 39
              |34, 103, 72, 66, 78, 68, 52, 68, 37, 62, 68, 91, 62, 64, 53, 55, 64, 53, 46, 54, 24, 54, 78, 18, 56, 54, 63, 89, 91, 91, 69, 66, 59, 55, 25, 37, 51, 67, 80, 59, 43, 19, 58, 56, 7, 18, 5, 69, 56, 74, 73, 57, 78, 22, 33, 53, 65, 30, 52, 71, 43, 13, 80, 83, 27, 42, 70, 73, 61, 38, 66, 85, 27, 44, 68, 54, 51, 56, 89, 56, 47, 59, 101, 70, 78, 77, 26, 101, 55, 3, 66, 44, 42, 31, 63, 55, 55, 28, 72, 42
              |77, 13, 24, 31, 23, 30, 82, 31, 76, 36, 29, 34, 75, 65, 97, 79, 50, 44, 101, 92, 87, 85, 39, 79, 57, 80, 81, 9, 37, 14, 82, 32, 89, 67, 104, 80, 71, 39, 91, 53, 60, 92, 66, 58, 103, 113, 99, 56, 40, 65, 47, 76, 22, 80, 117, 45, 31, 66, 85, 36, 59, 86, 82, 52, 75, 62, 36, 23, 39, 110, 52, 14, 94, 56, 47, 42, 75, 46, 57, 52, 67, 49, 5, 89, 47, 81, 82, 5, 42, 95, 52, 54, 72, 87, 39, 77, 101, 74, 73, 77
              |94, 78, 75, 76, 60, 79, 29, 57, 45, 58, 63, 51, 115, 109, 37, 112, 37, 60, 46, 32, 95, 115, 43, 67, 96, 27, 120, 83, 48, 68, 12, 79, 25, 29, 67, 44, 104, 47, 10, 38, 85, 93, 27, 35, 83, 86, 86, 28, 61, 17, 35, 112, 62, 85, 74, 57, 67, 66, 30, 48, 49, 83, 1, 31, 84, 86, 90, 73, 53, 62, 100, 83, 101, 80, 98, 65, 107, 49, 29, 91, 97, 42, 86, 15, 35, 4, 92, 85, 58, 83, 33, 77, 96, 100, 83, 26, 38, 56, 11, 39
              |36, 92, 63, 57, 67, 60, 39, 56, 23, 51, 57, 77, 64, 64, 42, 58, 50, 42, 37, 42, 31, 58, 65, 7, 53, 41, 66, 80, 77, 79, 56, 59, 47, 41, 22, 23, 53, 54, 67, 45, 39, 28, 44, 42, 19, 27, 19, 55, 45, 60, 59, 59, 66, 23, 34, 41, 55, 20, 40, 59, 30, 18, 66, 69, 26, 39, 64, 63, 49, 33, 63, 76, 36, 39, 64, 44, 53, 43, 75, 52, 47, 46, 91, 57, 64, 63, 30, 91, 44, 16, 52, 38, 43, 37, 56, 42, 45, 14, 58, 29
              |16, 101, 67, 60, 78, 61, 69, 68, 52, 62, 66, 94, 41, 45, 73, 33, 71, 53, 67, 73, 4, 31, 83, 29, 40, 71, 41, 83, 95, 89, 85, 59, 77, 68, 48, 53, 32, 71, 97, 66, 31, 4, 71, 66, 28, 38, 21, 79, 55, 86, 80, 36, 77, 13, 56, 54, 62, 33, 70, 75, 51, 13, 95, 92, 16, 30, 59, 68, 63, 61, 50, 78, 5, 35, 54, 52, 30, 60, 98, 43, 30, 66, 95, 88, 85, 92, 9, 96, 56, 20, 75, 37, 24, 8, 53, 71, 76, 40, 86, 58
              |25, 63, 30, 23, 41, 25, 55, 32, 40, 26, 29, 58, 40, 35, 66, 39, 41, 18, 65, 63, 34, 43, 49, 30, 22, 56, 45, 47, 60, 52, 67, 23, 64, 46, 58, 43, 30, 37, 79, 38, 11, 38, 48, 40, 50, 61, 46, 50, 19, 60, 48, 38, 40, 25, 70, 20, 25, 16, 58, 40, 26, 32, 74, 60, 21, 13, 28, 31, 28, 67, 29, 42, 41, 6, 29, 15, 33, 28, 68, 18, 23, 35, 59, 72, 53, 71, 29, 59, 21, 42, 45, 2, 24, 35, 20, 54, 70, 30, 63, 45
              |69, 80, 65, 63, 57, 66, 3, 49, 18, 47, 54, 57, 93, 89, 17, 90, 30, 44, 23, 12, 68, 92, 44, 40, 76, 1, 97, 78, 55, 68, 16, 66, 10, 13, 40, 17, 82, 40, 27, 27, 64, 67, 14, 22, 55, 59, 58, 28, 47, 26, 36, 90, 57, 59, 49, 42, 56, 42, 6, 44, 28, 56, 27, 40, 59, 64, 76, 63, 42, 38, 83, 76, 75, 60, 81, 49, 84, 36, 43, 72, 75, 31, 85, 18, 39, 24, 66, 84, 44, 55, 29, 56, 73, 74, 68, 4, 21, 30, 20, 11
              |46, 46, 20, 17, 21, 20, 48, 11, 38, 5, 11, 37, 59, 52, 62, 59, 23, 4, 64, 57, 54, 63, 28, 40, 38, 47, 64, 35, 38, 34, 54, 20, 56, 34, 65, 42, 50, 16, 66, 22, 32, 57, 35, 26, 64, 74, 61, 32, 2, 43, 28, 57, 21, 45, 77, 5, 10, 28, 51, 19, 21, 49, 59, 40, 41, 34, 30, 18, 7, 71, 41, 32, 61, 26, 39, 7, 53, 10, 47, 33, 43, 18, 45, 60, 32, 57, 49, 45, 2, 57, 27, 23, 45, 56, 24, 44, 66, 34, 48, 40
              |76, 81, 69, 67, 59, 70, 8, 52, 25, 51, 57, 56, 100, 96, 19, 96, 32, 49, 26, 13, 76, 99, 45, 47, 82, 6, 104, 81, 54, 69, 9, 71, 7, 16, 46, 24, 88, 43, 20, 30, 70, 74, 16, 25, 62, 65, 65, 27, 52, 23, 36, 96, 59, 66, 54, 47, 60, 49, 9, 46, 34, 64, 20, 38, 66, 71, 80, 67, 46, 42, 89, 79, 82, 66, 87, 54, 91, 40, 40, 78, 82, 34, 86, 11, 38, 17, 73, 86, 49, 62, 30, 63, 80, 81, 73, 7, 21, 37, 15, 19
              |41, 99, 71, 65, 74, 67, 41, 64, 27, 58, 65, 84, 69, 70, 41, 63, 56, 50, 35, 42, 34, 62, 72, 14, 60, 44, 71, 88, 84, 87, 59, 66, 48, 46, 16, 26, 58, 61, 69, 51, 46, 29, 49, 48, 13, 20, 16, 61, 53, 65, 65, 64, 74, 28, 27, 49, 63, 28, 41, 66, 37, 21, 69, 75, 32, 46, 72, 71, 56, 28, 70, 84, 38, 46, 71, 52, 58, 51, 80, 59, 53, 53, 98, 59, 70, 66, 34, 98, 52, 14, 58, 45, 48, 40, 64, 45, 44, 21, 62, 32
              |26, 68, 36, 30, 44, 32, 47, 34, 31, 28, 32, 59, 47, 43, 57, 44, 38, 18, 56, 55, 32, 47, 48, 21, 30, 48, 51, 53, 60, 56, 60, 31, 56, 40, 49, 35, 36, 36, 72, 34, 17, 34, 42, 34, 43, 54, 40, 46, 21, 55, 46, 43, 43, 22, 61, 19, 29, 8, 50, 40, 20, 27, 68, 58, 19, 18, 36, 36, 28, 58, 38, 49, 39, 13, 38, 18, 38, 25, 65, 27, 29, 32, 64, 64, 51, 65, 27, 65, 21, 35, 42, 11, 28, 35, 28, 46, 61, 21, 57, 36
              |73, 14, 21, 28, 13, 28, 73, 23, 67, 28, 22, 25, 76, 66, 87, 78, 40, 37, 91, 82, 83, 84, 29, 72, 56, 71, 82, 14, 28, 6, 72, 30, 79, 57, 96, 71, 70, 30, 81, 43, 57, 87, 56, 48, 96, 106, 93, 46, 33, 55, 37, 76, 13, 75, 108, 37, 25, 60, 76, 26, 51, 81, 72, 43, 71, 59, 36, 19, 30, 101, 53, 16, 90, 52, 48, 36, 74, 37, 48, 51, 65, 39, 15, 79, 37, 71, 78, 14, 34, 89, 42, 50, 69, 84, 37, 67, 91, 66, 63, 68
              |63, 40, 29, 30, 16, 33, 43, 11, 40, 13, 17, 23, 76, 68, 58, 76, 11, 20, 62, 53, 69, 80, 11, 50, 55, 41, 81, 38, 23, 27, 44, 34, 50, 28, 70, 43, 67, 1, 54, 14, 48, 71, 27, 19, 74, 82, 73, 18, 19, 29, 12, 74, 16, 59, 82, 18, 22, 40, 47, 4, 25, 62, 46, 23, 56, 50, 44, 26, 10, 73, 57, 37, 76, 43, 54, 24, 70, 12, 31, 50, 60, 11, 44, 51, 16, 45, 64, 43, 17, 68, 14, 40, 62, 72, 39, 38, 62, 41, 36, 39
              |66, 25, 15, 21, 24, 20, 80, 28, 71, 31, 24, 40, 63, 53, 94, 67, 49, 37, 97, 89, 77, 73, 41, 72, 45, 78, 69, 3, 43, 21, 82, 21, 87, 65, 98, 75, 59, 38, 92, 50, 49, 81, 64, 56, 94, 105, 90, 56, 34, 67, 49, 64, 22, 70, 110, 38, 23, 58, 83, 36, 54, 77, 84, 56, 65, 51, 24, 15, 35, 104, 40, 2, 83, 46, 35, 34, 63, 42, 62, 41, 55, 47, 15, 89, 49, 82, 72, 16, 36, 86, 52, 44, 60, 76, 28, 75, 98, 67, 74, 73
              |62, 51, 38, 38, 28, 41, 32, 21, 30, 21, 26, 31, 79, 73, 47, 78, 2, 23, 51, 41, 67, 82, 17, 44, 59, 30, 85, 49, 30, 39, 33, 42, 38, 16, 60, 33, 69, 11, 44, 3, 50, 68, 15, 8, 67, 74, 66, 11, 24, 21, 11, 77, 28, 56, 72, 21, 30, 37, 35, 15, 19, 58, 37, 22, 54, 52, 52, 36, 16, 62, 63, 48, 74, 45, 61, 28, 72, 12, 29, 55, 62, 4, 55, 40, 16, 35, 62, 55, 21, 62, 6, 41, 63, 70, 46, 26, 50, 34, 27, 28
              |16, 97, 64, 56, 74, 58, 63, 64, 46, 58, 62, 89, 43, 46, 67, 36, 66, 49, 62, 67, 5, 35, 78, 24, 40, 65, 44, 80, 90, 85, 80, 56, 72, 62, 44, 48, 33, 66, 91, 61, 29, 4, 65, 60, 25, 36, 18, 73, 51, 81, 75, 38, 73, 8, 52, 49, 58, 27, 65, 70, 45, 8, 90, 86, 13, 28, 57, 64, 58, 56, 50, 75, 11, 32, 53, 48, 32, 55, 93, 41, 30, 60, 92, 82, 80, 86, 8, 93, 51, 16, 69, 34, 24, 12, 51, 65, 71, 34, 80, 52
              |61, 95, 74, 70, 70, 73, 19, 61, 17, 57, 64, 75, 88, 87, 16, 83, 46, 51, 11, 17, 57, 84, 62, 30, 75, 22, 91, 89, 74, 83, 36, 72, 24, 31, 19, 13, 77, 55, 45, 42, 61, 53, 33, 37, 37, 38, 41, 47, 54, 47, 54, 84, 70, 49, 28, 49, 65, 38, 18, 59, 34, 44, 47, 60, 51, 61, 80, 73, 53, 18, 83, 86, 62, 58, 83, 55, 78, 47, 64, 72, 70, 45, 97, 35, 58, 44, 56, 97, 52, 39, 46, 56, 67, 63, 72, 25, 19, 24, 41, 16
              |10, 97, 62, 55, 76, 56, 77, 67, 59, 61, 64, 94, 28, 33, 83, 20, 74, 53, 78, 82, 11, 18, 84, 38, 31, 79, 28, 77, 95, 86, 92, 54, 86, 73, 60, 62, 20, 72, 104, 69, 26, 17, 76, 70, 41, 51, 34, 82, 54, 91, 82, 23, 75, 18, 69, 54, 59, 36, 79, 75, 55, 24, 102, 94, 18, 24, 52, 64, 63, 72, 40, 72, 11, 31, 44, 50, 18, 61, 101, 34, 20, 68, 90, 95, 87, 99, 11, 91, 56, 32, 78, 34, 14, 5, 47, 78, 86, 47, 92, 66
              |38, 99, 70, 64, 74, 66, 44, 64, 29, 58, 64, 85, 66, 67, 45, 60, 57, 49, 38, 45, 30, 59, 72, 13, 57, 46, 68, 87, 85, 87, 61, 65, 51, 48, 19, 29, 55, 62, 72, 52, 44, 26, 51, 49, 11, 20, 13, 62, 53, 67, 66, 61, 74, 25, 29, 49, 62, 27, 44, 66, 37, 17, 72, 77, 29, 43, 70, 70, 56, 31, 67, 83, 34, 44, 69, 51, 55, 51, 82, 57, 50, 53, 98, 62, 71, 69, 31, 98, 52, 11, 60, 43, 45, 36, 62, 48, 47, 22, 64, 35
              |89, 92, 82, 81, 71, 84, 19, 65, 37, 64, 70, 66, 113, 109, 19, 109, 44, 63, 28, 16, 87, 111, 55, 59, 96, 18, 117, 93, 64, 81, 12, 84, 11, 29, 51, 35, 102, 55, 12, 43, 83, 85, 29, 38, 70, 72, 74, 38, 65, 30, 47, 109, 72, 78, 57, 60, 73, 62, 18, 58, 48, 75, 19, 46, 79, 84, 94, 80, 59, 44, 102, 92, 93, 79, 101, 68, 104, 53, 46, 92, 95, 47, 98, 5, 48, 17, 85, 97, 62, 72, 41, 76, 93, 93, 87, 20, 19, 49, 21, 31
              |51, 113, 85, 79, 88, 81, 49, 78, 38, 72, 79, 98, 79, 81, 45, 72, 69, 64, 37, 48, 41, 70, 85, 28, 72, 52, 80, 102, 97, 101, 66, 80, 54, 57, 13, 36, 68, 75, 75, 64, 59, 35, 60, 60, 11, 8, 18, 73, 67, 76, 78, 74, 88, 39, 16, 63, 77, 42, 48, 79, 50, 30, 77, 87, 43, 58, 85, 85, 70, 24, 82, 98, 43, 59, 84, 66, 68, 64, 92, 72, 64, 66, 112, 66, 83, 74, 43, 112, 66, 20, 71, 59, 59, 47, 77, 54, 47, 35, 71, 42
              |23, 90, 57, 50, 74, 50, 90, 67, 73, 62, 63, 93, 7, 15, 98, 1, 79, 56, 95, 97, 32, 8, 86, 54, 21, 91, 8, 69, 95, 82, 104, 48, 99, 84, 80, 76, 9, 74, 116, 76, 28, 38, 86, 78, 62, 72, 55, 88, 56, 99, 86, 2, 73, 36, 89, 58, 57, 48, 92, 77, 64, 43, 112, 98, 33, 26, 42, 59, 65, 92, 26, 64, 33, 33, 31, 51, 6, 66, 105, 27, 16, 74, 81, 108, 91, 109, 30, 82, 58, 53, 84, 36, 17, 26, 41, 90, 102, 61, 101, 79
              |68, 22, 17, 24, 23, 22, 81, 29, 72, 32, 25, 38, 66, 56, 95, 70, 49, 39, 98, 90, 80, 76, 41, 74, 48, 79, 72, 0, 41, 19, 82, 24, 87, 65, 100, 76, 62, 38, 92, 51, 52, 84, 65, 56, 96, 107, 93, 56, 35, 66, 48, 67, 22, 72, 112, 40, 25, 60, 84, 36, 55, 79, 83, 55, 68, 54, 27, 17, 36, 106, 43, 5, 86, 48, 38, 36, 66, 43, 61, 44, 58, 47, 12, 89, 49, 82, 74, 13, 37, 88, 52, 47, 63, 79, 30, 76, 99, 69, 74, 74
              |67, 58, 47, 46, 35, 49, 25, 29, 27, 29, 34, 35, 86, 80, 40, 84, 8, 30, 45, 34, 70, 87, 22, 45, 66, 23, 91, 57, 33, 46, 25, 50, 31, 10, 57, 30, 75, 19, 36, 8, 56, 70, 8, 6, 66, 73, 67, 7, 31, 15, 13, 83, 36, 59, 68, 27, 38, 40, 28, 22, 22, 60, 30, 21, 58, 57, 60, 44, 24, 58, 70, 56, 77, 51, 68, 35, 78, 19, 27, 61, 68, 12, 63, 32, 17, 27, 66, 62, 28, 63, 6, 47, 68, 74, 53, 19, 43, 34, 19, 24
              |40, 47, 13, 6, 30, 6, 67, 25, 54, 22, 20, 50, 43, 34, 80, 45, 43, 21, 81, 76, 51, 50, 45, 49, 23, 67, 49, 28, 52, 38, 75, 4, 76, 55, 77, 58, 36, 35, 86, 42, 24, 56, 55, 46, 70, 81, 66, 52, 19, 64, 48, 42, 29, 44, 89, 24, 14, 35, 70, 36, 38, 52, 80, 59, 40, 26, 10, 15, 27, 85, 22, 23, 57, 20, 18, 16, 40, 31, 66, 17, 31, 38, 40, 81, 51, 77, 46, 41, 22, 62, 48, 19, 36, 51, 4, 64, 84, 47, 69, 58
              |27, 69, 36, 30, 54, 29, 81, 49, 65, 44, 43, 74, 19, 11, 91, 22, 64, 40, 90, 89, 40, 28, 68, 51, 4, 81, 25, 48, 76, 61, 92, 27, 90, 71, 80, 69, 15, 57, 104, 61, 18, 46, 73, 64, 66, 78, 60, 73, 39, 84, 69, 19, 53, 38, 91, 42, 38, 40, 83, 59, 52, 46, 98, 81, 33, 18, 21, 39, 48, 90, 7, 43, 44, 21, 11, 35, 19, 50, 88, 8, 13, 58, 60, 97, 73, 96, 36, 61, 42, 57, 68, 23, 20, 37, 20, 79, 95, 55, 88, 70
              |61, 94, 72, 68, 69, 71, 18, 60, 15, 56, 63, 73, 88, 86, 16, 82, 45, 50, 12, 17, 56, 83, 60, 29, 74, 21, 91, 88, 72, 81, 35, 71, 23, 29, 20, 11, 76, 53, 44, 40, 60, 53, 32, 35, 37, 39, 41, 45, 53, 46, 52, 83, 69, 48, 30, 48, 63, 37, 17, 57, 32, 43, 46, 59, 51, 60, 79, 71, 52, 19, 82, 85, 62, 57, 82, 54, 77, 45, 63, 71, 70, 43, 96, 34, 56, 43, 55, 96, 51, 39, 45, 55, 66, 62, 71, 24, 19, 23, 40, 15
              |76, 74, 64, 63, 53, 66, 13, 47, 27, 46, 52, 49, 99, 94, 26, 96, 26, 46, 33, 20, 77, 98, 38, 49, 80, 10, 103, 75, 47, 63, 8, 67, 14, 13, 51, 27, 87, 37, 20, 25, 69, 76, 11, 21, 66, 70, 68, 21, 48, 16, 29, 95, 54, 67, 60, 43, 56, 49, 15, 40, 32, 65, 17, 31, 67, 70, 77, 62, 41, 48, 86, 74, 83, 64, 84, 51, 90, 36, 33, 76, 80, 29, 80, 14, 31, 14, 74, 80, 45, 65, 24, 61, 79, 82, 70, 8, 28, 38, 9, 21
              |67, 125, 98, 93, 99, 95, 52, 89, 46, 84, 91, 106, 95, 97, 43, 88, 77, 76, 34, 47, 57, 86, 93, 42, 88, 55, 96, 115, 105, 112, 68, 94, 54, 63, 16, 43, 84, 85, 74, 73, 74, 51, 66, 68, 27, 18, 34, 79, 80, 80, 86, 90, 99, 55, 5, 75, 90, 56, 50, 89, 61, 46, 78, 93, 59, 74, 100, 98, 81, 18, 98, 111, 59, 74, 99, 79, 84, 75, 97, 87, 80, 75, 125, 65, 90, 76, 59, 125, 78, 36, 78, 73, 75, 63, 92, 58, 43, 46, 74, 48
              |17, 72, 38, 31, 54, 31, 72, 46, 55, 41, 42, 73, 23, 19, 82, 21, 58, 35, 79, 79, 30, 26, 65, 40, 8, 72, 28, 53, 75, 63, 84, 29, 81, 64, 68, 59, 13, 53, 96, 55, 8, 35, 65, 57, 55, 66, 49, 67, 35, 78, 65, 20, 53, 26, 79, 37, 37, 30, 74, 56, 44, 35, 92, 77, 22, 7, 27, 40, 44, 79, 18, 48, 34, 12, 21, 30, 16, 45, 84, 9, 6, 53, 65, 89, 69, 89, 25, 66, 37, 46, 63, 16, 11, 27, 22, 71, 85, 44, 81, 61
              |12, 75, 41, 33, 54, 34, 64, 45, 47, 40, 42, 72, 30, 27, 73, 26, 54, 32, 71, 71, 23, 29, 63, 31, 16, 65, 34, 56, 73, 64, 77, 32, 73, 57, 59, 51, 18, 51, 90, 50, 4, 28, 59, 52, 47, 58, 41, 63, 33, 73, 62, 26, 53, 18, 70, 33, 37, 22, 67, 54, 37, 26, 86, 74, 13, 3, 33, 42, 42, 70, 27, 51, 29, 9, 29, 28, 21, 41, 81, 17, 11, 48, 69, 82, 66, 83, 18, 69, 34, 37, 58, 12, 10, 23, 26, 64, 77, 36, 75, 53
              |72, 109, 88, 84, 84, 87, 29, 75, 31, 72, 78, 88, 99, 99, 18, 93, 59, 65, 9, 23, 65, 93, 75, 40, 87, 32, 102, 103, 86, 97, 43, 86, 30, 43, 18, 27, 88, 69, 49, 55, 73, 60, 45, 50, 40, 37, 46, 59, 69, 58, 67, 95, 85, 59, 20, 64, 79, 51, 27, 73, 48, 52, 54, 72, 62, 73, 94, 87, 68, 7, 96, 100, 69, 71, 96, 69, 89, 61, 75, 85, 82, 59, 112, 40, 70, 51, 65, 111, 66, 45, 59, 69, 78, 71, 86, 36, 18, 37, 51, 30
              |30, 74, 42, 36, 60, 35, 88, 55, 72, 51, 50, 80, 14, 4, 98, 19, 71, 47, 96, 96, 43, 26, 74, 57, 11, 88, 20, 52, 82, 67, 99, 33, 97, 78, 85, 75, 15, 64, 111, 68, 24, 49, 80, 71, 71, 82, 65, 80, 46, 91, 76, 16, 59, 42, 96, 49, 44, 47, 90, 66, 59, 51, 106, 88, 38, 24, 25, 44, 55, 96, 9, 47, 46, 28, 14, 42, 18, 57, 95, 15, 17, 65, 64, 104, 80, 103, 39, 65, 49, 61, 75, 30, 23, 39, 26, 86, 102, 61, 95, 77
              |61, 38, 25, 26, 13, 29, 47, 7, 42, 10, 13, 23, 73, 65, 61, 73, 15, 18, 65, 56, 68, 78, 13, 51, 52, 45, 78, 34, 24, 25, 48, 30, 53, 31, 72, 45, 64, 4, 59, 17, 46, 70, 31, 22, 74, 83, 73, 23, 17, 34, 16, 71, 13, 58, 83, 17, 18, 40, 50, 4, 27, 62, 50, 27, 55, 48, 40, 22, 8, 75, 54, 33, 75, 41, 50, 21, 68, 13, 34, 47, 57, 13, 40, 55, 19, 49, 63, 40, 15, 68, 18, 37, 59, 70, 35, 41, 65, 42, 40, 42
              |44, 43, 8, 1, 25, 3, 65, 21, 53, 18, 15, 45, 48, 39, 78, 50, 39, 19, 79, 74, 55, 56, 40, 50, 28, 64, 54, 25, 47, 33, 71, 3, 73, 52, 77, 57, 41, 30, 83, 39, 28, 59, 52, 43, 72, 83, 68, 48, 16, 59, 43, 48, 24, 48, 90, 21, 9, 36, 68, 31, 36, 54, 76, 54, 43, 30, 13, 10, 23, 85, 27, 20, 61, 24, 23, 14, 45, 28, 61, 23, 36, 35, 37, 78, 46, 74, 50, 37, 19, 64, 43, 22, 40, 55, 9, 61, 82, 47, 65, 56
              |54, 107, 81, 75, 81, 78, 38, 71, 29, 67, 73, 89, 82, 83, 34, 76, 60, 58, 26, 36, 46, 75, 76, 26, 73, 41, 84, 97, 89, 94, 55, 77, 43, 47, 3, 27, 71, 67, 64, 56, 59, 41, 50, 51, 20, 19, 26, 63, 62, 65, 69, 78, 81, 41, 15, 57, 72, 39, 37, 72, 43, 34, 66, 77, 45, 59, 83, 80, 64, 15, 82, 93, 50, 58, 83, 61, 71, 57, 82, 72, 66, 58, 107, 54, 73, 63, 47, 107, 60, 25, 62, 57, 61, 52, 75, 43, 35, 28, 60, 32
              |44, 51, 25, 22, 26, 25, 43, 16, 32, 10, 16, 40, 60, 53, 56, 59, 21, 3, 58, 52, 51, 63, 29, 35, 40, 42, 65, 41, 41, 39, 50, 25, 51, 30, 59, 36, 50, 17, 62, 19, 31, 53, 31, 22, 59, 68, 56, 30, 6, 41, 28, 57, 26, 41, 71, 1, 16, 23, 46, 21, 15, 45, 56, 40, 38, 33, 35, 24, 9, 65, 44, 38, 58, 26, 42, 9, 53, 8, 47, 35, 43, 16, 50, 56, 33, 54, 46, 50, 4, 52, 25, 22, 44, 53, 27, 39, 60, 28, 45, 35
              |65, 71, 56, 54, 47, 57, 12, 40, 17, 38, 44, 48, 87, 83, 27, 84, 21, 36, 32, 22, 66, 87, 35, 39, 69, 10, 92, 69, 47, 59, 19, 57, 19, 4, 45, 18, 76, 31, 31, 18, 57, 65, 6, 12, 57, 62, 59, 19, 38, 21, 27, 84, 48, 56, 55, 34, 47, 38, 15, 34, 21, 55, 28, 33, 56, 59, 67, 54, 33, 45, 75, 67, 72, 53, 74, 41, 79, 27, 37, 65, 69, 22, 75, 24, 31, 25, 63, 74, 35, 55, 20, 50, 68, 71, 60, 7, 30, 27, 18, 12
              |64, 96, 75, 71, 71, 74, 17, 62, 18, 58, 65, 74, 91, 89, 13, 86, 46, 52, 9, 15, 59, 86, 62, 32, 77, 21, 94, 90, 73, 83, 34, 74, 21, 30, 21, 14, 79, 55, 42, 42, 63, 56, 32, 37, 39, 41, 44, 46, 56, 46, 53, 86, 71, 51, 29, 51, 66, 40, 16, 59, 35, 46, 45, 60, 54, 63, 82, 74, 54, 18, 85, 87, 65, 60, 85, 57, 80, 47, 63, 74, 73, 45, 98, 33, 57, 42, 58, 98, 53, 42, 46, 58, 69, 65, 73, 23, 16, 26, 40, 16
              |37, 73, 46, 41, 47, 43, 33, 37, 16, 32, 38, 59, 61, 58, 42, 57, 32, 23, 41, 40, 38, 60, 46, 14, 45, 34, 65, 62, 59, 60, 47, 43, 42, 28, 37, 19, 50, 35, 59, 27, 32, 38, 30, 25, 38, 47, 37, 38, 27, 46, 41, 57, 47, 28, 50, 23, 37, 10, 35, 40, 11, 28, 56, 52, 28, 33, 50, 45, 30, 45, 53, 59, 45, 29, 53, 26, 52, 24, 58, 42, 43, 27, 72, 50, 46, 53, 35, 72, 25, 32, 35, 26, 41, 43, 42, 33, 46, 7, 46, 21
              |68, 37, 31, 34, 15, 36, 46, 14, 44, 18, 20, 17, 81, 73, 61, 81, 14, 26, 66, 55, 75, 86, 5, 56, 60, 44, 86, 38, 17, 25, 44, 38, 52, 31, 75, 48, 72, 7, 54, 18, 54, 77, 29, 23, 79, 88, 78, 18, 25, 28, 10, 79, 16, 65, 86, 24, 25, 46, 49, 4, 31, 68, 45, 19, 62, 56, 48, 29, 16, 77, 62, 38, 82, 49, 58, 29, 76, 18, 26, 55, 65, 15, 42, 52, 12, 44, 70, 41, 23, 74, 15, 45, 67, 78, 43, 40, 64, 47, 36, 43
              |79, 40, 42, 45, 24, 47, 46, 25, 48, 30, 31, 14, 92, 84, 60, 92, 17, 36, 66, 55, 85, 97, 6, 64, 72, 43, 98, 47, 12, 30, 40, 49, 50, 31, 79, 51, 83, 17, 48, 23, 65, 86, 29, 26, 86, 94, 86, 16, 36, 22, 9, 90, 25, 74, 90, 35, 37, 55, 49, 15, 38, 77, 38, 9, 72, 67, 59, 39, 26, 79, 73, 47, 92, 60, 69, 40, 87, 27, 15, 66, 76, 22, 48, 47, 4, 38, 80, 47, 34, 82, 16, 56, 78, 88, 55, 40, 63, 53, 31, 46
              |36, 89, 60, 55, 64, 57, 37, 53, 20, 48, 54, 74, 64, 63, 41, 58, 47, 39, 36, 40, 32, 59, 62, 5, 52, 39, 66, 77, 74, 76, 54, 56, 45, 38, 24, 21, 52, 51, 65, 42, 38, 29, 41, 39, 22, 31, 22, 52, 42, 58, 56, 59, 63, 24, 36, 38, 52, 18, 38, 56, 27, 19, 64, 66, 26, 38, 62, 60, 46, 34, 62, 73, 38, 37, 62, 41, 53, 40, 72, 51, 46, 43, 88, 55, 61, 61, 31, 88, 41, 18, 49, 36, 42, 38, 54, 39, 44, 11, 55, 26
              |58, 118, 90, 85, 92, 87, 49, 82, 41, 77, 83, 101, 86, 88, 43, 79, 72, 69, 34, 46, 48, 77, 88, 34, 79, 52, 87, 107, 100, 105, 66, 86, 53, 59, 11, 38, 75, 78, 74, 67, 65, 42, 62, 63, 18, 11, 25, 75, 72, 77, 81, 81, 92, 46, 10, 68, 82, 48, 48, 83, 54, 37, 77, 89, 50, 65, 91, 90, 75, 20, 89, 103, 50, 65, 90, 71, 75, 68, 93, 78, 71, 69, 117, 64, 85, 74, 50, 117, 71, 27, 73, 65, 65, 54, 83, 55, 44, 39, 71, 44
              |79, 16, 27, 34, 29, 33, 88, 37, 81, 40, 34, 39, 75, 65, 103, 79, 56, 48, 106, 97, 90, 86, 45, 83, 58, 86, 81, 10, 42, 20, 88, 34, 94, 72, 109, 85, 72, 45, 97, 58, 62, 94, 72, 64, 106, 117, 103, 62, 45, 71, 53, 76, 28, 82, 121, 49, 35, 70, 91, 42, 64, 89, 88, 58, 78, 64, 36, 27, 44, 115, 52, 15, 96, 59, 47, 46, 76, 51, 63, 54, 68, 54, 4, 95, 53, 87, 85, 5, 46, 98, 58, 57, 73, 89, 40, 83, 106, 78, 79, 82
              |79, 19, 31, 37, 13, 38, 64, 22, 62, 28, 25, 10, 86, 77, 79, 88, 32, 38, 84, 74, 88, 93, 17, 72, 66, 62, 92, 28, 13, 9, 61, 40, 69, 49, 93, 66, 79, 24, 69, 36, 63, 90, 47, 41, 96, 105, 94, 35, 35, 43, 26, 85, 14, 78, 104, 37, 30, 61, 67, 19, 48, 83, 59, 29, 75, 65, 48, 28, 29, 95, 64, 30, 94, 58, 59, 39, 83, 34, 34, 60, 73, 33, 27, 68, 25, 59, 82, 26, 35, 90, 33, 55, 76, 89, 46, 58, 82, 64, 52, 62
              |70, 27, 26, 31, 7, 32, 55, 13, 52, 19, 17, 14, 79, 71, 70, 80, 23, 28, 75, 65, 78, 85, 11, 62, 59, 53, 85, 30, 16, 15, 54, 34, 61, 40, 82, 56, 71, 13, 63, 26, 55, 81, 38, 32, 85, 94, 84, 27, 26, 37, 19, 78, 9, 68, 94, 27, 23, 51, 59, 9, 38, 73, 54, 26, 65, 57, 43, 23, 19, 86, 59, 30, 85, 49, 54, 30, 75, 24, 32, 53, 65, 23, 33, 61, 19, 53, 73, 32, 25, 79, 24, 46, 68, 80, 40, 50, 74, 53, 45, 52
              |82, 15, 33, 39, 16, 40, 69, 26, 67, 32, 28, 12, 88, 78, 83, 90, 36, 41, 88, 78, 91, 95, 21, 76, 68, 66, 94, 28, 15, 8, 65, 41, 73, 53, 97, 70, 81, 28, 72, 40, 66, 94, 51, 45, 100, 109, 98, 39, 39, 47, 30, 87, 17, 82, 109, 41, 33, 65, 72, 23, 52, 86, 63, 32, 78, 68, 49, 30, 33, 100, 66, 30, 98, 61, 61, 42, 85, 38, 36, 62, 76, 38, 25, 72, 28, 62, 86, 24, 39, 93, 37, 58, 79, 92, 49, 62, 87, 68, 55, 66
              |63, 49, 37, 37, 25, 40, 34, 19, 32, 20, 25, 28, 80, 73, 49, 78, 2, 23, 54, 44, 68, 82, 15, 46, 59, 32, 85, 47, 27, 36, 35, 41, 41, 19, 63, 36, 70, 9, 46, 6, 51, 69, 18, 11, 69, 77, 69, 11, 23, 22, 9, 77, 26, 58, 74, 21, 29, 38, 38, 12, 21, 60, 38, 21, 56, 52, 51, 35, 15, 65, 63, 46, 75, 45, 60, 28, 73, 12, 28, 54, 63, 5, 53, 42, 14, 36, 64, 52, 21, 64, 6, 42, 64, 72, 45, 29, 53, 36, 28, 31
              |93, 89, 82, 81, 69, 84, 24, 64, 41, 64, 70, 62, 116, 112, 26, 113, 43, 64, 35, 23, 92, 115, 53, 63, 98, 22, 120, 92, 60, 78, 10, 85, 16, 30, 58, 39, 105, 54, 5, 43, 86, 90, 29, 39, 76, 78, 80, 36, 66, 27, 44, 112, 70, 82, 64, 61, 73, 65, 23, 56, 50, 79, 13, 42, 83, 87, 95, 80, 59, 51, 104, 91, 98, 82, 102, 69, 107, 54, 41, 94, 98, 47, 96, 5, 45, 12, 89, 95, 63, 77, 40, 78, 96, 97, 88, 23, 26, 53, 18, 35
              |22, 72, 41, 34, 49, 36, 49, 39, 32, 33, 37, 64, 45, 42, 58, 41, 42, 23, 56, 56, 27, 44, 53, 18, 30, 50, 49, 58, 65, 61, 62, 35, 58, 43, 47, 35, 34, 41, 74, 38, 16, 29, 45, 38, 39, 50, 35, 50, 26, 59, 50, 41, 48, 17, 59, 24, 34, 6, 51, 45, 23, 22, 71, 62, 14, 17, 39, 41, 33, 56, 39, 53, 34, 14, 40, 23, 36, 30, 69, 28, 27, 36, 69, 66, 55, 68, 22, 69, 26, 31, 46, 13, 25, 30, 31, 48, 62, 21, 60, 38
              |54, 34, 4, 9, 22, 8, 71, 22, 61, 22, 16, 41, 54, 45, 85, 57, 43, 27, 87, 81, 65, 63, 39, 60, 35, 70, 60, 15, 44, 26, 76, 9, 79, 57, 87, 65, 49, 32, 87, 43, 37, 69, 57, 48, 82, 93, 78, 51, 23, 62, 44, 54, 21, 57, 99, 28, 13, 46, 74, 32, 44, 64, 79, 54, 53, 39, 15, 6, 27, 94, 32, 10, 71, 34, 27, 23, 53, 33, 60, 30, 44, 39, 27, 82, 47, 77, 60, 28, 26, 74, 46, 32, 49, 65, 16, 67, 89, 56, 69, 64
              |30, 81, 52, 46, 56, 48, 40, 46, 23, 40, 46, 69, 56, 55, 47, 51, 43, 31, 44, 45, 28, 52, 57, 5, 43, 42, 59, 69, 69, 69, 56, 47, 49, 38, 34, 25, 44, 45, 67, 38, 29, 28, 41, 36, 28, 38, 26, 49, 34, 57, 52, 52, 56, 18, 45, 31, 44, 9, 42, 50, 22, 17, 66, 63, 19, 29, 52, 52, 39, 43, 52, 64, 35, 27, 53, 33, 46, 34, 69, 41, 38, 38, 79, 59, 57, 62, 25, 80, 34, 22, 46, 26, 35, 33, 44, 41, 51, 11, 56, 29
              |50, 38, 10, 10, 16, 13, 57, 10, 48, 8, 4, 35, 58, 49, 71, 59, 29, 14, 73, 67, 59, 64, 29, 49, 37, 56, 64, 25, 37, 27, 62, 14, 65, 43, 74, 52, 50, 20, 73, 29, 34, 63, 43, 34, 72, 82, 69, 38, 10, 49, 32, 57, 15, 51, 87, 15, 1, 36, 60, 21, 30, 56, 66, 43, 47, 36, 24, 9, 13, 81, 38, 22, 66, 29, 34, 12, 54, 19, 50, 32, 44, 25, 35, 69, 35, 64, 54, 35, 12, 65, 33, 26, 47, 60, 19, 53, 75, 44, 55, 50
              |45, 97, 70, 64, 71, 67, 34, 61, 21, 56, 62, 80, 73, 73, 35, 67, 52, 48, 29, 36, 39, 67, 67, 15, 62, 37, 75, 86, 80, 84, 52, 66, 41, 40, 14, 20, 62, 57, 62, 47, 48, 35, 43, 43, 19, 25, 23, 55, 51, 59, 60, 68, 71, 32, 26, 47, 61, 28, 35, 62, 33, 26, 63, 70, 36, 48, 72, 69, 53, 24, 72, 82, 44, 47, 73, 50, 62, 47, 75, 61, 56, 48, 96, 52, 65, 60, 39, 96, 50, 21, 53, 46, 52, 45, 64, 38, 37, 18, 55, 26
              |59, 35, 21, 23, 10, 25, 50, 3, 44, 8, 9, 24, 70, 62, 65, 70, 19, 17, 68, 60, 67, 75, 16, 51, 49, 49, 76, 30, 26, 23, 52, 26, 57, 35, 74, 48, 61, 8, 63, 21, 44, 70, 34, 26, 75, 84, 73, 27, 15, 38, 20, 68, 10, 57, 86, 16, 14, 40, 53, 8, 28, 62, 55, 30, 54, 46, 36, 18, 8, 78, 50, 29, 74, 39, 47, 19, 65, 14, 37, 44, 55, 17, 37, 59, 23, 53, 62, 37, 14, 69, 22, 36, 57, 69, 32, 45, 69, 44, 45, 45
              |8, 90, 56, 49, 68, 50, 64, 58, 47, 52, 56, 84, 36, 38, 70, 29, 62, 43, 66, 69, 7, 29, 73, 25, 31, 66, 38, 72, 85, 79, 80, 48, 73, 61, 49, 49, 25, 61, 91, 58, 21, 12, 64, 58, 33, 44, 26, 70, 45, 79, 71, 31, 67, 6, 59, 44, 51, 24, 66, 65, 43, 13, 89, 83, 6, 19, 49, 57, 53, 61, 41, 68, 14, 24, 44, 41, 25, 51, 90, 33, 22, 57, 85, 83, 76, 86, 2, 85, 46, 23, 66, 26, 16, 10, 43, 65, 74, 35, 79, 53
              |78, 13, 26, 33, 25, 32, 85, 34, 78, 38, 31, 35, 76, 66, 99, 80, 52, 46, 103, 94, 89, 86, 41, 81, 58, 83, 82, 10, 38, 16, 84, 34, 91, 69, 107, 82, 72, 41, 93, 55, 62, 93, 68, 60, 105, 115, 101, 58, 42, 67, 49, 77, 25, 81, 119, 47, 33, 68, 88, 38, 62, 88, 84, 54, 77, 64, 37, 25, 41, 112, 53, 15, 95, 58, 48, 44, 76, 48, 59, 54, 68, 51, 3, 91, 49, 83, 84, 3, 44, 97, 54, 56, 73, 89, 40, 79, 103, 76, 75, 79
              |77, 72, 63, 62, 50, 65, 16, 45, 28, 45, 50, 47, 98, 93, 28, 96, 24, 44, 36, 23, 78, 98, 35, 50, 80, 13, 103, 73, 45, 60, 9, 65, 17, 12, 54, 28, 87, 35, 21, 24, 68, 76, 10, 19, 68, 72, 70, 18, 46, 13, 27, 95, 51, 67, 63, 42, 54, 49, 18, 37, 32, 66, 16, 28, 67, 70, 75, 60, 40, 51, 85, 72, 84, 64, 83, 50, 90, 34, 31, 75, 80, 27, 78, 16, 29, 13, 74, 77, 43, 66, 21, 60, 79, 82, 68, 10, 31, 39, 7, 22
              |52, 84, 61, 57, 59, 60, 19, 49, 5, 45, 52, 65, 78, 76, 25, 73, 36, 39, 23, 23, 50, 75, 52, 21, 63, 21, 81, 77, 64, 72, 36, 60, 27, 23, 26, 3, 66, 44, 47, 32, 49, 47, 26, 27, 36, 41, 39, 39, 42, 42, 45, 74, 59, 40, 37, 37, 52, 27, 20, 48, 21, 37, 46, 53, 42, 50, 68, 60, 42, 29, 71, 74, 55, 47, 71, 43, 68, 35, 58, 60, 60, 34, 86, 37, 49, 43, 48, 85, 40, 35, 38, 44, 57, 55, 59, 22, 28, 13, 38, 9
              |85, 12, 35, 41, 20, 42, 73, 30, 71, 36, 31, 15, 90, 80, 87, 92, 40, 45, 93, 82, 94, 98, 26, 80, 70, 70, 96, 28, 18, 9, 68, 44, 77, 57, 101, 74, 84, 32, 76, 45, 69, 98, 55, 50, 104, 113, 102, 43, 42, 50, 34, 90, 20, 85, 113, 45, 36, 68, 76, 28, 56, 90, 66, 36, 81, 71, 51, 32, 37, 104, 67, 31, 101, 64, 63, 46, 88, 42, 39, 65, 78, 42, 23, 76, 32, 66, 89, 22, 42, 97, 41, 61, 82, 96, 51, 67, 91, 72, 59, 70
              |59, 28, 7, 14, 13, 14, 66, 15, 58, 17, 11, 32, 62, 53, 81, 65, 36, 25, 84, 76, 69, 70, 30, 60, 43, 65, 68, 14, 35, 18, 69, 16, 74, 51, 86, 62, 56, 25, 80, 37, 43, 73, 51, 42, 83, 94, 80, 44, 21, 54, 36, 62, 11, 61, 98, 26, 11, 47, 70, 24, 41, 67, 71, 45, 57, 45, 24, 5, 22, 91, 40, 12, 76, 38, 36, 23, 60, 28, 52, 37, 51, 33, 24, 76, 38, 70, 64, 24, 23, 76, 39, 36, 55, 70, 23, 62, 85, 55, 62, 60
              |50, 62, 41, 38, 37, 41, 27, 27, 17, 24, 30, 45, 70, 66, 40, 68, 17, 19, 42, 36, 53, 71, 32, 29, 52, 26, 75, 56, 45, 50, 36, 41, 36, 16, 47, 21, 59, 22, 49, 12, 40, 53, 18, 11, 52, 60, 51, 24, 22, 32, 26, 67, 37, 42, 59, 17, 32, 23, 30, 27, 4, 43, 44, 37, 41, 42, 50, 40, 20, 51, 58, 53, 60, 36, 56, 24, 62, 13, 43, 48, 52, 13, 64, 42, 31, 41, 49, 64, 19, 47, 20, 32, 52, 57, 43, 24, 44, 19, 33, 19
              |15, 74, 40, 33, 56, 33, 72, 48, 55, 43, 44, 74, 22, 19, 81, 20, 59, 36, 79, 79, 28, 25, 66, 39, 9, 73, 27, 55, 76, 65, 84, 31, 81, 64, 67, 59, 11, 55, 97, 56, 8, 33, 66, 58, 53, 65, 47, 68, 36, 79, 66, 19, 55, 25, 78, 38, 38, 30, 74, 57, 44, 33, 92, 78, 20, 7, 29, 42, 46, 78, 20, 50, 32, 13, 23, 32, 15, 46, 86, 12, 4, 54, 67, 89, 71, 89, 23, 68, 38, 44, 64, 16, 9, 25, 25, 71, 85, 44, 81, 61
              |34, 103, 72, 66, 78, 68, 52, 68, 37, 62, 68, 91, 62, 64, 53, 55, 64, 53, 46, 54, 24, 54, 78, 18, 56, 54, 63, 89, 91, 91, 69, 66, 59, 55, 25, 37, 51, 67, 80, 59, 43, 19, 58, 56, 7, 18, 5, 69, 56, 74, 73, 57, 78, 22, 33, 53, 65, 30, 52, 71, 43, 13, 80, 83, 27, 42, 70, 73, 61, 38, 66, 85, 27, 44, 68, 54, 51, 56, 89, 56, 47, 59, 101, 70, 78, 77, 26, 101, 55, 3, 66, 44, 42, 31, 63, 55, 55, 28, 72, 42
              |60, 100, 77, 72, 75, 75, 25, 65, 21, 61, 68, 80, 88, 87, 21, 82, 51, 54, 13, 23, 54, 82, 67, 29, 75, 28, 90, 93, 79, 87, 42, 75, 29, 36, 13, 17, 76, 59, 50, 47, 61, 50, 39, 42, 32, 33, 37, 52, 58, 53, 59, 83, 75, 47, 22, 53, 68, 39, 24, 64, 37, 41, 53, 66, 50, 61, 82, 76, 57, 13, 84, 89, 59, 59, 84, 58, 77, 51, 70, 73, 70, 49, 102, 41, 63, 50, 54, 101, 55, 35, 52, 57, 66, 60, 74, 31, 23, 25, 48, 22
              |64, 95, 75, 71, 70, 74, 16, 61, 17, 58, 64, 74, 91, 89, 13, 86, 45, 52, 9, 14, 60, 87, 61, 33, 77, 20, 94, 90, 72, 82, 33, 73, 20, 29, 22, 13, 79, 54, 41, 41, 63, 57, 32, 36, 40, 42, 45, 45, 55, 45, 52, 87, 70, 52, 30, 50, 65, 41, 15, 58, 34, 47, 44, 59, 54, 64, 81, 73, 54, 19, 85, 87, 65, 60, 85, 56, 81, 47, 62, 74, 73, 44, 98, 32, 56, 41, 59, 97, 53, 43, 45, 58, 70, 66, 73, 22, 16, 26, 39, 16
              |31, 110, 77, 70, 86, 72, 65, 76, 49, 70, 74, 100, 57, 61, 66, 49, 74, 60, 59, 67, 18, 46, 88, 28, 55, 67, 56, 94, 100, 98, 82, 70, 72, 67, 37, 49, 47, 76, 93, 69, 44, 12, 70, 67, 15, 23, 8, 80, 63, 86, 83, 51, 85, 22, 42, 60, 71, 37, 65, 80, 53, 15, 93, 94, 27, 42, 72, 78, 69, 49, 65, 89, 18, 46, 68, 60, 46, 65, 100, 56, 45, 69, 106, 83, 88, 90, 22, 106, 63, 11, 77, 47, 38, 24, 65, 68, 68, 39, 84, 55
              |19, 77, 45, 38, 54, 40, 51, 44, 33, 38, 42, 69, 44, 42, 59, 39, 47, 28, 56, 57, 22, 41, 58, 16, 31, 52, 47, 62, 70, 66, 65, 39, 60, 46, 45, 36, 32, 46, 77, 42, 17, 24, 48, 42, 35, 46, 30, 54, 31, 63, 55, 40, 53, 12, 56, 29, 39, 9, 53, 50, 27, 17, 74, 67, 10, 17, 43, 46, 38, 55, 41, 58, 29, 17, 42, 28, 34, 35, 74, 30, 26, 41, 74, 69, 60, 71, 18, 74, 31, 26, 50, 16, 23, 26, 35, 51, 62, 21, 64, 39
              |65, 119, 93, 88, 93, 90, 45, 83, 40, 79, 85, 100, 93, 94, 37, 86, 71, 71, 28, 41, 56, 85, 87, 38, 85, 49, 94, 110, 99, 106, 61, 89, 48, 57, 10, 37, 82, 79, 68, 67, 71, 50, 60, 62, 26, 20, 33, 73, 74, 74, 79, 88, 93, 52, 2, 70, 85, 51, 44, 83, 55, 44, 72, 87, 56, 70, 95, 93, 76, 12, 94, 106, 58, 70, 96, 74, 82, 69, 91, 84, 77, 69, 119, 59, 84, 69, 57, 119, 73, 34, 72, 69, 72, 62, 87, 51, 37, 41, 68, 42
              |86, 34, 44, 48, 25, 50, 55, 30, 58, 35, 34, 7, 97, 88, 69, 97, 27, 43, 76, 64, 92, 102, 12, 72, 76, 52, 102, 45, 4, 26, 48, 52, 58, 41, 88, 60, 88, 24, 54, 32, 71, 94, 38, 35, 95, 103, 95, 25, 41, 30, 18, 95, 26, 82, 99, 41, 40, 63, 58, 20, 47, 85, 45, 14, 79, 73, 61, 41, 33, 89, 76, 46, 99, 66, 72, 46, 92, 35, 17, 71, 82, 31, 44, 55, 14, 45, 87, 43, 40, 90, 25, 62, 84, 95, 58, 49, 72, 62, 38, 55
              |81, 16, 32, 38, 15, 39, 68, 25, 66, 31, 27, 12, 87, 77, 83, 89, 36, 41, 88, 77, 90, 94, 21, 75, 67, 66, 93, 27, 15, 8, 64, 41, 73, 52, 96, 69, 80, 27, 72, 40, 65, 93, 51, 45, 99, 108, 97, 38, 38, 46, 30, 86, 16, 81, 108, 40, 32, 64, 71, 23, 51, 85, 63, 32, 77, 67, 48, 29, 32, 99, 65, 30, 97, 60, 60, 41, 84, 37, 36, 61, 75, 37, 25, 71, 28, 62, 85, 23, 38, 92, 36, 57, 78, 91, 48, 62, 86, 67, 55, 65
              |92, 71, 70, 71, 54, 73, 32, 52, 45, 53, 57, 44, 112, 106, 42, 110, 32, 56, 50, 37, 94, 113, 36, 67, 92, 29, 117, 77, 41, 61, 16, 74, 30, 28, 70, 46, 101, 41, 18, 34, 82, 93, 25, 32, 85, 89, 87, 23, 57, 12, 29, 109, 55, 84, 78, 53, 62, 65, 33, 42, 47, 83, 8, 23, 83, 84, 85, 67, 48, 66, 96, 77, 101, 77, 93, 61, 104, 45, 21, 87, 94, 37, 79, 21, 28, 9, 90, 78, 54, 84, 28, 74, 94, 98, 79, 27, 43, 56, 10, 40
              |76, 11, 23, 30, 17, 30, 76, 26, 71, 31, 25, 27, 77, 67, 91, 80, 44, 40, 95, 86, 86, 86, 32, 76, 58, 74, 83, 13, 30, 7, 75, 32, 82, 61, 100, 75, 72, 33, 84, 47, 59, 90, 59, 52, 99, 109, 96, 49, 37, 58, 40, 77, 17, 78, 112, 40, 28, 63, 79, 30, 55, 84, 75, 45, 73, 61, 38, 22, 34, 104, 54, 17, 92, 55, 49, 39, 76, 41, 50, 53, 67, 43, 11, 82, 40, 74, 81, 10, 38, 92, 46, 52, 72, 86, 39, 71, 95, 69, 66, 71
              |18, 75, 43, 36, 52, 38, 53, 42, 35, 36, 41, 68, 42, 40, 61, 37, 46, 27, 58, 59, 23, 40, 57, 19, 28, 54, 45, 60, 69, 64, 66, 36, 62, 47, 48, 38, 30, 45, 79, 42, 14, 26, 49, 43, 38, 49, 33, 55, 29, 64, 55, 38, 51, 13, 59, 28, 37, 10, 55, 49, 27, 19, 75, 67, 10, 14, 40, 43, 37, 58, 37, 55, 30, 13, 39, 26, 32, 35, 74, 27, 23, 41, 71, 70, 60, 72, 18, 72, 30, 29, 50, 13, 21, 26, 32, 52, 65, 24, 65, 41
              |53, 53, 34, 32, 28, 35, 33, 19, 26, 16, 23, 36, 71, 65, 48, 69, 11, 15, 51, 43, 58, 73, 24, 37, 51, 32, 76, 47, 36, 40, 39, 36, 41, 19, 56, 30, 60, 13, 51, 7, 41, 59, 20, 10, 60, 68, 59, 19, 17, 30, 19, 68, 28, 48, 68, 13, 25, 28, 36, 17, 12, 50, 44, 31, 46, 43, 46, 32, 11, 60, 56, 45, 65, 36, 53, 20, 64, 5, 38, 46, 53, 5, 55, 45, 24, 42, 54, 55, 14, 55, 15, 33, 54, 61, 39, 29, 51, 27, 34, 27
              |69, 124, 99, 93, 99, 96, 50, 89, 46, 84, 91, 106, 97, 99, 41, 90, 77, 76, 32, 45, 59, 88, 93, 43, 89, 53, 98, 115, 105, 112, 66, 95, 52, 62, 16, 42, 86, 84, 72, 72, 76, 53, 65, 68, 29, 21, 36, 78, 80, 79, 85, 92, 99, 56, 4, 75, 90, 57, 49, 89, 61, 48, 77, 92, 61, 75, 101, 98, 81, 16, 99, 112, 61, 75, 101, 79, 86, 75, 96, 89, 82, 75, 125, 63, 89, 74, 61, 125, 78, 38, 78, 74, 76, 65, 93, 56, 41, 46, 73, 48
              |100, 70, 73, 75, 56, 78, 41, 56, 54, 58, 61, 43, 118, 112, 50, 117, 37, 62, 59, 45, 102, 120, 38, 76, 98, 38, 123, 79, 40, 62, 25, 79, 38, 36, 79, 54, 108, 45, 23, 40, 89, 102, 33, 39, 94, 98, 96, 28, 62, 18, 33, 116, 58, 92, 87, 59, 67, 72, 42, 45, 54, 91, 15, 24, 91, 90, 89, 71, 53, 75, 102, 79, 109, 84, 99, 67, 111, 51, 19, 93, 101, 43, 80, 29, 30, 17, 98, 78, 59, 92, 33, 80, 101, 106, 84, 36, 52, 64, 19, 49
              |20, 97, 64, 57, 74, 59, 60, 64, 43, 58, 62, 89, 47, 50, 64, 40, 64, 48, 58, 64, 9, 39, 77, 21, 43, 62, 48, 81, 89, 86, 77, 57, 68, 60, 40, 44, 37, 65, 88, 59, 31, 6, 63, 58, 21, 32, 15, 71, 51, 78, 73, 42, 73, 9, 48, 49, 59, 26, 61, 69, 43, 4, 87, 85, 14, 30, 59, 65, 58, 52, 53, 77, 14, 33, 55, 48, 36, 54, 91, 44, 33, 59, 93, 79, 78, 84, 11, 94, 51, 12, 68, 35, 27, 16, 52, 62, 67, 32, 77, 49
              |98, 69, 72, 74, 55, 76, 40, 54, 53, 57, 60, 42, 117, 110, 50, 115, 36, 60, 58, 45, 101, 119, 37, 74, 97, 37, 122, 78, 39, 61, 24, 77, 38, 35, 78, 53, 107, 44, 23, 39, 87, 100, 32, 38, 93, 97, 95, 27, 61, 17, 31, 114, 56, 90, 86, 58, 65, 71, 41, 44, 53, 90, 14, 23, 89, 89, 88, 69, 52, 74, 100, 78, 108, 82, 97, 65, 110, 49, 18, 92, 99, 42, 78, 29, 29, 17, 97, 77, 58, 91, 32, 79, 100, 105, 82, 35, 51, 63, 18, 47
              |75, 18, 24, 31, 27, 30, 86, 35, 79, 38, 31, 39, 72, 62, 101, 76, 54, 46, 104, 96, 87, 82, 44, 81, 55, 84, 78, 7, 42, 20, 86, 31, 93, 71, 106, 83, 69, 43, 96, 56, 59, 91, 70, 62, 103, 114, 100, 60, 42, 70, 52, 73, 26, 79, 119, 47, 32, 67, 89, 40, 62, 86, 87, 58, 75, 61, 33, 24, 42, 112, 49, 12, 93, 55, 44, 43, 73, 49, 63, 50, 65, 52, 6, 94, 52, 86, 81, 7, 44, 95, 57, 54, 70, 86, 37, 81, 104, 76, 78, 80
              |52, 41, 19, 19, 16, 22, 49, 5, 40, 1, 7, 31, 64, 56, 63, 64, 20, 10, 66, 58, 60, 69, 22, 45, 43, 47, 69, 32, 33, 28, 53, 22, 56, 34, 69, 44, 55, 11, 64, 20, 37, 63, 34, 25, 69, 78, 67, 29, 8, 40, 24, 62, 15, 50, 81, 10, 10, 33, 52, 13, 24, 55, 57, 35, 47, 39, 33, 17, 4, 74, 45, 30, 67, 32, 42, 12, 59, 10, 43, 38, 48, 16, 41, 59, 28, 55, 55, 41, 7, 62, 24, 29, 51, 62, 27, 44, 67, 38, 46, 42
              |63, 106, 83, 78, 81, 81, 31, 71, 27, 67, 74, 86, 90, 90, 24, 84, 58, 60, 15, 27, 56, 84, 73, 32, 79, 34, 93, 99, 85, 94, 47, 80, 34, 43, 9, 23, 79, 66, 54, 53, 65, 51, 45, 48, 30, 29, 36, 59, 64, 59, 65, 86, 81, 49, 16, 59, 74, 44, 29, 70, 43, 43, 58, 72, 53, 65, 87, 82, 64, 7, 88, 95, 60, 63, 89, 64, 80, 57, 76, 77, 73, 56, 108, 45, 70, 55, 56, 107, 61, 36, 58, 62, 69, 62, 79, 37, 25, 31, 53, 28
              |86, 83, 75, 74, 62, 77, 18, 57, 35, 57, 62, 56, 109, 104, 25, 106, 36, 56, 34, 20, 86, 108, 46, 58, 91, 16, 113, 85, 54, 72, 3, 77, 13, 23, 55, 34, 98, 47, 10, 36, 79, 84, 22, 31, 72, 75, 75, 29, 59, 21, 38, 106, 63, 76, 62, 54, 66, 59, 18, 49, 43, 74, 11, 37, 76, 80, 87, 72, 52, 49, 97, 84, 92, 75, 95, 62, 100, 47, 37, 87, 91, 40, 89, 4, 39, 9, 83, 88, 55, 72, 33, 71, 89, 91, 80, 16, 26, 47, 12, 29
              |68, 33, 28, 31, 11, 33, 50, 12, 47, 17, 17, 16, 79, 71, 64, 79, 17, 25, 69, 59, 75, 84, 8, 57, 58, 47, 85, 34, 17, 21, 48, 35, 55, 34, 77, 50, 70, 8, 58, 21, 53, 77, 33, 26, 81, 89, 79, 22, 24, 32, 14, 77, 12, 65, 89, 24, 23, 47, 53, 4, 33, 69, 49, 22, 62, 55, 45, 25, 15, 80, 59, 34, 82, 48, 55, 28, 74, 19, 29, 53, 64, 18, 38, 56, 15, 48, 70, 37, 22, 75, 19, 44, 66, 77, 41, 44, 68, 48, 40, 46
              |76, 19, 28, 34, 10, 35, 64, 20, 61, 26, 22, 12, 83, 74, 78, 84, 31, 35, 83, 73, 85, 90, 17, 70, 62, 61, 89, 26, 15, 8, 61, 36, 69, 48, 91, 64, 76, 22, 69, 35, 60, 88, 47, 40, 93, 103, 92, 35, 33, 43, 26, 82, 11, 75, 103, 35, 27, 58, 67, 18, 46, 80, 60, 30, 72, 62, 45, 25, 26, 94, 61, 28, 92, 55, 56, 36, 80, 32, 35, 57, 70, 32, 26, 68, 25, 59, 80, 25, 32, 87, 32, 52, 73, 86, 43, 58, 82, 62, 52, 60
              |51, 89, 65, 61, 64, 64, 22, 54, 10, 50, 56, 70, 78, 76, 25, 73, 42, 42, 22, 25, 48, 74, 57, 20, 64, 25, 81, 81, 70, 76, 40, 63, 30, 29, 20, 8, 66, 49, 50, 37, 50, 45, 32, 33, 32, 36, 35, 44, 46, 47, 50, 74, 64, 39, 32, 41, 56, 28, 23, 53, 26, 35, 51, 59, 41, 51, 70, 64, 46, 25, 73, 78, 53, 48, 73, 46, 68, 40, 63, 62, 60, 39, 90, 41, 55, 48, 46, 90, 44, 32, 43, 46, 57, 53, 62, 26, 29, 14, 43, 14
              |26, 106, 73, 66, 83, 68, 65, 73, 48, 66, 71, 97, 52, 56, 67, 45, 72, 57, 60, 67, 14, 42, 85, 27, 50, 67, 52, 90, 98, 95, 82, 66, 72, 66, 39, 49, 43, 74, 93, 67, 40, 8, 69, 65, 18, 27, 11, 79, 60, 85, 81, 47, 82, 18, 46, 57, 68, 34, 66, 78, 51, 12, 92, 92, 23, 38, 68, 74, 66, 51, 60, 85, 14, 42, 63, 57, 41, 62, 99, 52, 40, 67, 102, 83, 86, 89, 18, 102, 60, 11, 75, 44, 34, 19, 61, 68, 69, 38, 83, 55
              |71, 24, 25, 30, 6, 31, 59, 14, 55, 20, 17, 14, 79, 70, 73, 80, 26, 30, 78, 68, 79, 86, 14, 64, 59, 56, 85, 27, 16, 12, 57, 33, 64, 43, 85, 59, 72, 16, 66, 29, 55, 82, 42, 35, 88, 97, 86, 31, 27, 40, 22, 78, 7, 70, 97, 29, 23, 52, 62, 12, 40, 74, 57, 28, 66, 57, 42, 22, 21, 89, 58, 28, 86, 50, 54, 31, 75, 26, 34, 53, 66, 26, 29, 64, 22, 56, 74, 29, 27, 81, 28, 47, 69, 81, 40, 53, 77, 56, 48, 55
              |66, 112, 88, 83, 87, 86, 36, 77, 33, 73, 79, 92, 94, 94, 27, 87, 63, 65, 18, 31, 58, 87, 79, 36, 83, 39, 96, 104, 91, 99, 51, 85, 38, 48, 9, 29, 82, 71, 58, 59, 69, 53, 51, 54, 31, 27, 37, 64, 69, 64, 71, 89, 87, 53, 11, 64, 79, 48, 34, 76, 49, 45, 62, 78, 56, 69, 92, 87, 69, 4, 93, 101, 61, 68, 93, 69, 83, 63, 82, 82, 77, 62, 113, 49, 75, 59, 58, 113, 67, 37, 64, 66, 72, 64, 84, 42, 28, 36, 58, 34
              |9, 78, 44, 36, 57, 37, 65, 48, 48, 42, 45, 75, 29, 28, 74, 25, 56, 34, 71, 72, 20, 28, 65, 30, 18, 66, 33, 60, 76, 67, 79, 35, 74, 59, 58, 51, 17, 53, 91, 52, 8, 25, 61, 54, 44, 56, 38, 65, 36, 75, 64, 25, 56, 16, 69, 36, 40, 22, 67, 57, 39, 24, 87, 76, 11, 6, 36, 45, 44, 69, 29, 55, 26, 12, 31, 31, 19, 43, 83, 19, 11, 51, 72, 83, 69, 84, 15, 72, 37, 35, 60, 15, 8, 20, 30, 65, 77, 36, 76, 54
              |67, 92, 73, 70, 67, 73, 11, 59, 17, 56, 62, 69, 93, 91, 9, 89, 41, 51, 11, 9, 64, 90, 57, 36, 78, 14, 97, 87, 68, 79, 27, 72, 15, 25, 28, 13, 82, 51, 35, 38, 65, 61, 27, 32, 46, 48, 50, 40, 54, 39, 48, 89, 68, 55, 36, 49, 64, 42, 9, 55, 33, 51, 38, 54, 57, 65, 81, 72, 51, 24, 86, 85, 69, 61, 85, 55, 83, 45, 57, 75, 75, 41, 95, 26, 52, 35, 62, 94, 51, 47, 41, 59, 72, 70, 73, 17, 13, 28, 33, 13
              |28, 85, 52, 46, 70, 45, 93, 64, 76, 60, 59, 90, 3, 7, 102, 10, 79, 55, 99, 99, 39, 16, 84, 58, 18, 93, 9, 63, 92, 77, 105, 43, 102, 84, 85, 79, 11, 72, 117, 76, 28, 45, 86, 78, 69, 79, 62, 88, 54, 98, 85, 6, 69, 41, 95, 57, 54, 50, 95, 75, 65, 49, 112, 97, 37, 27, 36, 55, 64, 97, 20, 58, 40, 33, 25, 50, 11, 65, 104, 23, 17, 73, 75, 110, 89, 110, 36, 76, 57, 59, 83, 36, 21, 34, 36, 92, 105, 64, 102, 81
              |42, 92, 65, 60, 67, 62, 34, 57, 19, 52, 58, 77, 70, 69, 36, 64, 48, 43, 31, 36, 37, 64, 64, 11, 58, 36, 72, 82, 76, 80, 51, 61, 41, 38, 18, 19, 58, 54, 62, 43, 44, 33, 41, 40, 21, 28, 23, 53, 47, 57, 57, 65, 67, 29, 30, 42, 57, 23, 34, 58, 29, 24, 62, 67, 32, 44, 67, 65, 49, 28, 67, 78, 42, 43, 68, 46, 59, 43, 72, 57, 52, 45, 92, 52, 62, 59, 36, 92, 45, 20, 50, 41, 48, 43, 59, 37, 39, 14, 54, 25
              |78, 45, 45, 48, 28, 50, 41, 28, 45, 31, 34, 19, 93, 86, 55, 93, 15, 37, 62, 50, 84, 97, 10, 61, 73, 38, 99, 51, 17, 35, 35, 51, 44, 27, 75, 47, 84, 18, 42, 20, 65, 85, 24, 23, 83, 90, 83, 11, 37, 16, 6, 91, 29, 73, 85, 35, 39, 54, 44, 17, 36, 75, 33, 6, 71, 67, 61, 43, 27, 75, 75, 51, 91, 60, 72, 41, 87, 27, 13, 68, 77, 20, 53, 42, 2, 32, 79, 52, 34, 79, 12, 56, 78, 87, 57, 35, 58, 50, 25, 42
              |60, 37, 23, 25, 12, 27, 47, 5, 42, 9, 11, 24, 71, 64, 62, 72, 16, 17, 66, 57, 67, 76, 15, 50, 51, 46, 77, 33, 25, 25, 49, 29, 54, 32, 72, 46, 63, 5, 60, 18, 45, 69, 31, 23, 74, 83, 72, 24, 16, 35, 17, 70, 13, 57, 83, 16, 16, 39, 51, 6, 26, 61, 52, 28, 54, 47, 39, 21, 7, 75, 52, 32, 74, 40, 49, 20, 66, 12, 35, 45, 56, 14, 40, 56, 21, 50, 62, 39, 14, 68, 19, 36, 58, 69, 34, 42, 66, 42, 42, 42
              |71, 122, 97, 92, 96, 95, 45, 87, 42, 82, 89, 102, 99, 100, 35, 92, 73, 75, 26, 40, 62, 91, 89, 43, 90, 48, 100, 113, 101, 109, 60, 94, 47, 58, 15, 39, 88, 81, 66, 69, 76, 56, 61, 64, 33, 26, 40, 74, 78, 74, 81, 94, 96, 58, 5, 73, 89, 56, 43, 86, 58, 50, 71, 88, 62, 76, 100, 97, 79, 10, 100, 110, 64, 75, 101, 78, 88, 72, 91, 89, 83, 71, 123, 57, 85, 68, 63, 123, 76, 41, 74, 74, 78, 68, 92, 51, 35, 45, 67, 44
              |81, 60, 57, 58, 41, 60, 30, 39, 39, 40, 44, 33, 100, 93, 43, 98, 19, 43, 51, 38, 85, 102, 24, 59, 80, 27, 105, 64, 31, 49, 21, 61, 32, 20, 67, 40, 89, 28, 28, 22, 70, 84, 17, 21, 79, 85, 80, 10, 44, 2, 16, 97, 42, 74, 77, 41, 49, 55, 33, 29, 36, 74, 19, 14, 73, 72, 72, 54, 36, 65, 84, 64, 91, 65, 81, 48, 93, 33, 16, 75, 82, 25, 67, 28, 16, 18, 81, 66, 41, 77, 15, 62, 83, 89, 66, 24, 46, 48, 11, 34
              |2, 87, 53, 46, 67, 47, 72, 58, 54, 52, 55, 85, 26, 28, 79, 20, 66, 44, 75, 77, 14, 20, 75, 34, 23, 73, 28, 69, 86, 77, 86, 45, 81, 67, 59, 57, 15, 63, 98, 62, 17, 20, 69, 62, 43, 53, 36, 74, 46, 84, 74, 21, 66, 15, 69, 46, 50, 30, 74, 66, 47, 23, 95, 86, 13, 15, 43, 55, 54, 71, 33, 64, 18, 22, 37, 41, 15, 53, 93, 26, 13, 60, 81, 90, 78, 92, 10, 82, 47, 33, 70, 25, 6, 11, 38, 72, 82, 42, 85, 60
              |31, 71, 42, 36, 47, 39, 40, 36, 23, 30, 36, 60, 54, 51, 50, 50, 36, 21, 48, 47, 33, 52, 48, 15, 38, 41, 58, 59, 60, 59, 54, 38, 49, 34, 42, 27, 42, 36, 66, 31, 24, 34, 37, 30, 38, 48, 36, 43, 24, 51, 44, 50, 46, 23, 54, 21, 34, 3, 42, 41, 15, 25, 62, 56, 21, 25, 44, 42, 29, 50, 46, 55, 40, 21, 46, 23, 44, 25, 63, 35, 35, 30, 69, 58, 49, 60, 29, 70, 24, 31, 39, 19, 33, 37, 36, 40, 54, 13, 52, 29
              |55, 109, 83, 77, 84, 80, 40, 74, 31, 69, 75, 91, 83, 84, 35, 77, 63, 60, 27, 38, 47, 76, 78, 28, 74, 43, 85, 99, 91, 96, 57, 79, 45, 49, 3, 29, 72, 69, 65, 58, 60, 41, 52, 54, 19, 18, 26, 65, 64, 67, 71, 78, 83, 42, 13, 60, 74, 41, 39, 74, 45, 34, 68, 79, 46, 60, 85, 82, 66, 15, 84, 95, 50, 59, 85, 63, 72, 60, 84, 73, 67, 60, 109, 56, 76, 65, 48, 109, 62, 26, 64, 59, 62, 53, 77, 45, 37, 30, 62, 34
              |57, 121, 93, 87, 96, 89, 55, 86, 46, 80, 86, 105, 84, 87, 49, 77, 77, 72, 41, 52, 46, 75, 92, 36, 79, 58, 85, 110, 105, 109, 72, 88, 59, 64, 17, 43, 74, 82, 80, 72, 66, 40, 67, 68, 16, 6, 23, 80, 75, 82, 85, 79, 96, 45, 15, 71, 85, 50, 54, 87, 58, 36, 83, 94, 50, 65, 92, 93, 78, 26, 89, 106, 47, 66, 91, 74, 74, 72, 99, 79, 70, 73, 120, 71, 90, 80, 49, 120, 74, 26, 78, 66, 65, 52, 85, 60, 50, 42, 77, 49
              |45, 45, 17, 14, 21, 17, 51, 12, 40, 6, 10, 38, 56, 49, 64, 56, 26, 6, 66, 60, 53, 61, 30, 41, 36, 50, 62, 33, 40, 33, 57, 17, 59, 37, 67, 44, 47, 19, 69, 25, 30, 57, 38, 29, 65, 75, 62, 35, 2, 46, 31, 55, 21, 44, 79, 7, 8, 28, 54, 21, 23, 49, 62, 43, 40, 32, 27, 16, 10, 73, 38, 30, 60, 25, 36, 5, 51, 14, 50, 31, 41, 21, 43, 64, 35, 60, 48, 43, 5, 57, 30, 21, 43, 55, 21, 47, 68, 36, 51, 43
              |22, 103, 70, 63, 80, 64, 65, 70, 48, 64, 68, 95, 48, 52, 68, 40, 70, 54, 62, 68, 9, 38, 83, 26, 46, 67, 48, 86, 95, 91, 82, 62, 73, 65, 42, 49, 38, 71, 93, 65, 35, 3, 68, 64, 21, 31, 14, 77, 57, 84, 79, 43, 79, 14, 49, 55, 64, 32, 66, 75, 49, 10, 92, 91, 19, 34, 64, 71, 64, 54, 56, 82, 11, 38, 59, 53, 37, 60, 97, 47, 36, 65, 98, 84, 84, 89, 14, 99, 57, 13, 74, 40, 30, 15, 57, 68, 71, 37, 83, 55
              |74, 54, 48, 49, 34, 52, 30, 30, 35, 32, 36, 29, 91, 85, 45, 90, 11, 35, 51, 39, 77, 94, 18, 53, 71, 28, 97, 57, 28, 43, 25, 53, 34, 17, 65, 37, 81, 20, 35, 14, 62, 78, 14, 14, 74, 81, 75, 1, 36, 10, 9, 89, 35, 67, 75, 33, 41, 47, 33, 21, 29, 68, 27, 14, 66, 64, 63, 46, 27, 64, 75, 56, 84, 57, 72, 40, 84, 24, 19, 67, 74, 16, 61, 33, 11, 25, 73, 60, 33, 71, 6, 53, 75, 81, 57, 24, 48, 42, 17, 31
              |54, 104, 78, 73, 79, 76, 35, 69, 26, 64, 70, 86, 82, 82, 31, 76, 57, 56, 24, 34, 46, 75, 73, 24, 71, 38, 84, 95, 85, 91, 52, 75, 40, 44, 5, 23, 70, 64, 61, 52, 57, 42, 47, 48, 21, 22, 27, 60, 59, 62, 66, 77, 78, 41, 17, 55, 70, 37, 34, 69, 40, 34, 63, 74, 44, 57, 81, 78, 61, 15, 81, 91, 50, 56, 82, 59, 71, 54, 79, 70, 65, 55, 104, 51, 70, 60, 47, 104, 58, 26, 59, 55, 60, 53, 73, 40, 33, 26, 57, 29
              |30, 69, 40, 34, 45, 36, 42, 35, 25, 29, 34, 59, 52, 49, 51, 49, 35, 19, 50, 49, 34, 52, 47, 17, 36, 42, 57, 57, 59, 57, 55, 35, 51, 35, 44, 29, 41, 35, 67, 30, 23, 35, 37, 30, 40, 50, 38, 43, 22, 51, 44, 49, 44, 23, 56, 19, 32, 4, 44, 39, 15, 26, 63, 55, 22, 24, 42, 40, 28, 53, 44, 52, 41, 19, 44, 21, 43, 24, 62, 33, 34, 29, 67, 59, 49, 60, 29, 67, 22, 33, 39, 17, 33, 37, 34, 41, 55, 15, 53, 30
              |33, 58, 27, 21, 35, 23, 49, 25, 35, 19, 23, 51, 48, 42, 61, 47, 33, 10, 61, 58, 40, 51, 41, 30, 29, 49, 53, 44, 52, 46, 60, 22, 58, 39, 57, 39, 38, 29, 72, 30, 19, 43, 40, 32, 52, 63, 49, 42, 12, 52, 40, 45, 34, 31, 69, 12, 20, 16, 52, 33, 20, 36, 66, 52, 27, 21, 29, 27, 20, 65, 35, 40, 47, 14, 34, 9, 41, 20, 59, 25, 31, 27, 55, 65, 45, 64, 35, 55, 13, 45, 37, 10, 32, 42, 21, 47, 65, 27, 56, 39
              |59, 28, 8, 14, 12, 15, 66, 14, 57, 17, 10, 31, 63, 53, 80, 65, 35, 24, 83, 75, 69, 71, 30, 60, 43, 64, 69, 15, 34, 18, 68, 16, 73, 50, 85, 61, 56, 24, 79, 36, 42, 73, 50, 41, 83, 93, 80, 43, 21, 53, 35, 62, 11, 61, 97, 25, 11, 46, 69, 23, 40, 67, 70, 44, 56, 44, 25, 5, 21, 91, 41, 13, 75, 38, 36, 22, 60, 28, 51, 37, 51, 32, 25, 75, 37, 69, 64, 25, 22, 75, 38, 35, 55, 69, 24, 61, 84, 54, 61, 59
              |79, 67, 60, 60, 47, 63, 22, 43, 32, 43, 48, 42, 99, 94, 34, 97, 22, 44, 42, 29, 80, 100, 31, 54, 80, 18, 104, 70, 39, 56, 12, 64, 23, 14, 59, 33, 88, 32, 22, 22, 69, 80, 12, 19, 72, 77, 74, 14, 46, 7, 22, 96, 48, 70, 68, 42, 52, 51, 24, 34, 33, 70, 15, 23, 70, 71, 74, 58, 38, 56, 85, 69, 87, 64, 82, 49, 91, 34, 25, 75, 81, 26, 74, 20, 24, 13, 77, 73, 42, 71, 18, 61, 81, 85, 68, 16, 37, 42, 4, 27
              |70, 72, 59, 58, 49, 61, 12, 42, 22, 41, 47, 48, 92, 87, 26, 89, 22, 40, 33, 21, 71, 92, 36, 43, 74, 9, 97, 71, 46, 60, 14, 61, 17, 6, 48, 22, 81, 33, 27, 20, 62, 70, 6, 15, 61, 66, 63, 18, 42, 17, 27, 89, 49, 61, 58, 37, 50, 43, 15, 36, 26, 60, 23, 31, 61, 63, 71, 57, 36, 47, 80, 69, 77, 58, 78, 45, 84, 30, 35, 70, 74, 24, 77, 20, 30, 20, 68, 76, 39, 60, 20, 54, 73, 76, 64, 6, 30, 32, 14, 16
              |98, 72, 74, 75, 57, 78, 38, 56, 52, 58, 62, 45, 117, 111, 47, 116, 37, 61, 56, 42, 100, 119, 39, 73, 98, 35, 122, 80, 42, 63, 21, 79, 35, 34, 76, 52, 107, 46, 20, 40, 88, 100, 31, 38, 91, 95, 93, 28, 62, 17, 33, 115, 59, 90, 84, 59, 67, 71, 39, 46, 53, 89, 11, 25, 89, 89, 89, 71, 53, 71, 101, 80, 107, 83, 98, 66, 110, 50, 21, 93, 100, 43, 81, 25, 31, 14, 97, 80, 59, 90, 33, 79, 100, 105, 83, 33, 48, 62, 16, 46
              |103, 81, 82, 83, 66, 85, 38, 64, 54, 65, 69, 54, 123, 117, 44, 121, 44, 67, 53, 40, 104, 124, 48, 76, 104, 35, 128, 89, 51, 72, 21, 86, 33, 38, 75, 53, 112, 53, 14, 46, 93, 102, 35, 43, 92, 95, 95, 35, 69, 24, 41, 120, 67, 93, 82, 65, 74, 75, 38, 54, 57, 92, 10, 34, 93, 95, 97, 79, 60, 69, 108, 89, 110, 88, 105, 73, 115, 57, 30, 99, 105, 49, 90, 22, 40, 13, 100, 89, 66, 92, 40, 85, 105, 108, 91, 35, 45, 65, 20, 48
              |25, 99, 67, 60, 75, 62, 56, 65, 39, 59, 64, 88, 53, 55, 59, 46, 63, 49, 53, 59, 16, 45, 77, 17, 47, 58, 54, 84, 89, 87, 73, 60, 64, 57, 34, 40, 42, 65, 84, 58, 35, 11, 60, 56, 16, 27, 9, 69, 52, 76, 72, 48, 74, 13, 42, 49, 60, 26, 57, 69, 42, 5, 83, 83, 18, 34, 63, 67, 58, 46, 58, 79, 19, 37, 60, 49, 42, 54, 89, 48, 39, 58, 95, 75, 77, 80, 17, 96, 52, 6, 66, 38, 33, 22, 56, 59, 62, 29, 74, 46
              |71, 18, 21, 27, 8, 28, 67, 18, 62, 23, 18, 20, 76, 67, 81, 78, 34, 33, 86, 76, 81, 84, 23, 68, 56, 65, 82, 18, 23, 5, 66, 30, 73, 51, 91, 66, 70, 24, 75, 37, 55, 84, 50, 42, 92, 102, 89, 39, 30, 49, 31, 76, 8, 72, 103, 33, 22, 56, 70, 20, 46, 77, 66, 37, 68, 57, 38, 18, 25, 95, 54, 20, 87, 50, 49, 33, 74, 32, 42, 51, 64, 34, 21, 73, 31, 65, 76, 20, 30, 85, 36, 48, 68, 82, 37, 61, 85, 61, 57, 62
              |93, 62, 65, 67, 48, 69, 39, 47, 50, 50, 53, 35, 111, 104, 51, 109, 30, 54, 59, 45, 96, 113, 30, 71, 91, 36, 116, 70, 32, 53, 25, 70, 38, 31, 77, 51, 101, 37, 28, 33, 82, 96, 28, 33, 90, 95, 92, 21, 54, 12, 24, 108, 49, 86, 86, 52, 58, 66, 41, 37, 48, 86, 18, 15, 85, 83, 81, 62, 45, 74, 94, 71, 103, 76, 90, 59, 104, 43, 11, 86, 94, 36, 71, 31, 22, 19, 92, 70, 52, 88, 26, 73, 94, 100, 75, 34, 52, 59, 17, 45
              |29, 83, 51, 45, 69, 44, 93, 63, 76, 59, 58, 89, 5, 5, 102, 12, 78, 54, 99, 100, 41, 18, 82, 59, 17, 93, 11, 61, 91, 76, 105, 42, 102, 84, 86, 79, 12, 71, 117, 75, 28, 47, 86, 77, 70, 81, 63, 87, 53, 98, 84, 8, 68, 42, 96, 56, 52, 50, 95, 73, 64, 50, 112, 96, 38, 27, 35, 53, 63, 97, 18, 56, 42, 32, 23, 49, 13, 64, 103, 22, 17, 72, 73, 109, 88, 109, 37, 74, 56, 61, 82, 36, 22, 35, 35, 91, 106, 65, 101, 81
              |34, 58, 28, 22, 34, 25, 47, 24, 33, 18, 23, 50, 50, 45, 59, 49, 31, 9, 59, 56, 41, 52, 40, 29, 31, 47, 55, 45, 51, 46, 57, 24, 56, 37, 56, 37, 40, 28, 69, 28, 21, 44, 38, 30, 52, 62, 49, 40, 11, 50, 38, 48, 34, 31, 68, 10, 20, 16, 50, 31, 18, 36, 64, 51, 28, 22, 31, 28, 19, 64, 37, 40, 48, 16, 36, 9, 43, 18, 58, 27, 33, 25, 55, 63, 43, 62, 36, 56, 12, 44, 35, 12, 34, 43, 23, 45, 63, 26, 53, 37
              |55, 34, 7, 11, 24, 9, 74, 25, 64, 25, 19, 43, 54, 44, 88, 57, 46, 29, 90, 84, 66, 63, 42, 62, 35, 73, 60, 14, 46, 27, 79, 11, 82, 60, 89, 68, 49, 35, 90, 46, 38, 71, 60, 51, 84, 95, 80, 54, 26, 65, 47, 54, 23, 59, 101, 31, 16, 48, 77, 35, 47, 66, 82, 56, 54, 40, 14, 9, 30, 96, 31, 9, 72, 35, 26, 25, 53, 36, 63, 30, 45, 42, 26, 85, 49, 80, 61, 27, 29, 76, 49, 34, 50, 66, 17, 70, 92, 59, 72, 66
              |26, 74, 41, 35, 60, 34, 85, 54, 68, 49, 49, 79, 14, 6, 95, 17, 69, 45, 93, 92, 39, 24, 73, 53, 8, 85, 20, 53, 81, 67, 96, 33, 94, 75, 81, 72, 11, 62, 108, 66, 21, 45, 77, 69, 67, 78, 60, 78, 44, 89, 75, 14, 58, 38, 92, 47, 43, 43, 87, 64, 56, 47, 103, 86, 34, 20, 26, 44, 53, 92, 10, 48, 42, 24, 15, 40, 15, 55, 93, 13, 13, 63, 65, 101, 78, 100, 35, 66, 47, 57, 73, 27, 19, 35, 26, 83, 98, 57, 92, 74
              |79, 77, 67, 66, 56, 69, 13, 50, 28, 49, 55, 52, 101, 96, 24, 98, 29, 48, 32, 18, 78, 100, 41, 51, 83, 10, 105, 78, 50, 66, 6, 70, 12, 15, 51, 28, 90, 40, 18, 28, 71, 77, 14, 24, 66, 70, 69, 23, 51, 18, 32, 98, 57, 69, 59, 46, 59, 51, 14, 43, 35, 67, 16, 33, 69, 72, 80, 65, 44, 47, 89, 77, 85, 67, 87, 54, 92, 39, 35, 79, 83, 32, 83, 11, 34, 13, 76, 82, 48, 66, 26, 63, 81, 84, 72, 9, 26, 40, 10, 22
              |45, 53, 28, 25, 27, 28, 40, 17, 29, 12, 19, 40, 62, 55, 53, 60, 19, 6, 55, 49, 51, 64, 29, 34, 42, 39, 67, 43, 41, 40, 48, 28, 48, 27, 57, 33, 51, 17, 60, 16, 32, 53, 28, 19, 57, 67, 55, 28, 9, 39, 27, 59, 27, 41, 69, 4, 19, 22, 43, 21, 12, 45, 54, 39, 38, 34, 37, 27, 10, 62, 47, 40, 58, 27, 44, 11, 55, 6, 46, 37, 44, 14, 53, 53, 32, 51, 46, 52, 6, 51, 24, 24, 45, 54, 30, 36, 57, 26, 43, 32
              |25, 92, 59, 53, 77, 52, 93, 70, 76, 65, 65, 96, 6, 16, 101, 3, 82, 59, 97, 99, 34, 7, 89, 57, 24, 94, 5, 71, 98, 84, 107, 50, 102, 86, 82, 79, 11, 77, 119, 79, 30, 40, 88, 81, 64, 74, 57, 91, 59, 101, 89, 4, 75, 38, 91, 60, 59, 50, 95, 80, 67, 45, 115, 101, 35, 29, 44, 61, 68, 94, 28, 66, 34, 36, 33, 54, 9, 69, 108, 29, 18, 76, 83, 111, 93, 112, 32, 84, 61, 55, 86, 39, 20, 28, 43, 93, 105, 64, 104, 82
              |55, 38, 19, 20, 13, 23, 49, 3, 42, 4, 7, 28, 66, 59, 64, 67, 19, 13, 67, 59, 63, 72, 20, 48, 46, 48, 72, 31, 30, 26, 52, 24, 56, 34, 71, 46, 58, 9, 63, 20, 40, 66, 34, 25, 72, 81, 69, 28, 11, 39, 22, 65, 13, 53, 83, 13, 12, 36, 52, 11, 25, 58, 56, 33, 50, 42, 34, 17, 5, 75, 47, 29, 70, 35, 44, 15, 61, 12, 40, 40, 51, 16, 39, 59, 25, 54, 58, 39, 10, 65, 23, 32, 54, 65, 29, 44, 67, 40, 45, 43
              |67, 37, 31, 33, 15, 36, 46, 13, 43, 17, 19, 18, 80, 72, 60, 80, 13, 25, 65, 55, 74, 85, 6, 55, 59, 43, 86, 38, 18, 25, 44, 37, 51, 30, 74, 47, 71, 6, 54, 17, 53, 76, 29, 22, 78, 87, 77, 18, 24, 28, 10, 78, 16, 64, 85, 23, 25, 45, 49, 3, 30, 67, 45, 20, 61, 55, 47, 28, 15, 76, 61, 38, 81, 48, 57, 28, 75, 17, 27, 54, 64, 14, 42, 51, 12, 44, 69, 41, 22, 73, 15, 44, 66, 77, 42, 40, 64, 46, 36, 42
              |51, 116, 87, 81, 91, 83, 53, 80, 42, 75, 81, 101, 78, 81, 49, 71, 72, 66, 41, 52, 40, 69, 88, 30, 72, 56, 79, 104, 100, 103, 70, 82, 58, 61, 17, 40, 68, 78, 79, 67, 60, 34, 64, 64, 10, 4, 17, 76, 70, 79, 81, 73, 90, 39, 19, 66, 79, 44, 52, 82, 53, 30, 81, 90, 43, 59, 86, 87, 73, 28, 83, 100, 41, 60, 85, 68, 67, 67, 96, 72, 64, 69, 115, 70, 86, 78, 42, 115, 68, 19, 74, 60, 58, 46, 78, 58, 51, 38, 75, 46
              |55, 110, 83, 78, 84, 80, 41, 74, 32, 69, 76, 92, 83, 84, 36, 77, 64, 61, 28, 39, 46, 76, 79, 28, 74, 44, 85, 100, 92, 97, 58, 79, 46, 50, 4, 30, 72, 70, 66, 59, 60, 41, 53, 55, 19, 17, 25, 66, 65, 68, 72, 78, 84, 42, 13, 60, 75, 41, 40, 75, 46, 34, 69, 80, 46, 60, 85, 83, 67, 16, 84, 96, 49, 60, 85, 64, 72, 60, 85, 73, 67, 61, 110, 57, 77, 66, 47, 110, 63, 25, 65, 59, 62, 53, 77, 46, 38, 31, 63, 35
              |67, 115, 91, 86, 89, 89, 38, 80, 35, 75, 82, 95, 96, 96, 29, 89, 66, 68, 20, 33, 59, 88, 82, 38, 85, 41, 97, 107, 94, 102, 54, 88, 40, 51, 10, 32, 84, 74, 60, 62, 71, 54, 53, 57, 31, 27, 38, 67, 72, 67, 74, 91, 89, 54, 9, 67, 82, 51, 36, 78, 52, 47, 64, 81, 58, 71, 95, 90, 72, 4, 95, 103, 62, 70, 96, 72, 85, 65, 84, 84, 79, 64, 116, 51, 78, 62, 60, 116, 70, 38, 67, 69, 74, 66, 86, 44, 29, 38, 60, 36
              |76, 102, 84, 81, 78, 84, 20, 70, 28, 67, 74, 79, 102, 101, 6, 97, 52, 62, 4, 12, 71, 98, 67, 44, 88, 23, 105, 99, 78, 90, 32, 84, 18, 35, 28, 24, 91, 62, 37, 49, 75, 67, 37, 43, 49, 48, 54, 50, 65, 47, 58, 98, 79, 63, 32, 60, 75, 52, 17, 66, 45, 58, 42, 62, 65, 75, 92, 83, 63, 19, 97, 96, 76, 72, 96, 67, 92, 56, 65, 86, 84, 52, 106, 28, 62, 40, 70, 106, 63, 52, 51, 69, 81, 77, 84, 26, 6, 38, 40, 25
              |49, 66, 45, 41, 41, 44, 25, 32, 13, 28, 34, 49, 71, 67, 37, 68, 21, 22, 39, 33, 51, 71, 36, 26, 53, 24, 75, 60, 48, 54, 36, 44, 33, 16, 43, 17, 60, 26, 48, 16, 41, 51, 18, 13, 48, 56, 48, 26, 25, 33, 30, 68, 41, 41, 54, 20, 35, 22, 27, 31, 5, 41, 44, 40, 40, 42, 53, 43, 24, 47, 60, 57, 58, 37, 58, 27, 62, 17, 46, 49, 53, 17, 68, 40, 35, 41, 47, 68, 23, 44, 23, 34, 52, 55, 45, 22, 41, 15, 34, 15
              |66, 91, 72, 69, 67, 72, 11, 58, 16, 55, 62, 69, 92, 90, 11, 87, 41, 50, 11, 10, 62, 88, 57, 34, 77, 15, 95, 87, 68, 79, 28, 72, 16, 25, 27, 12, 80, 51, 37, 37, 63, 59, 27, 32, 44, 47, 48, 41, 53, 40, 48, 88, 67, 54, 35, 48, 63, 41, 10, 55, 32, 50, 39, 54, 56, 64, 80, 71, 51, 24, 85, 84, 68, 60, 84, 54, 82, 44, 57, 74, 74, 41, 94, 27, 52, 36, 61, 94, 50, 46, 41, 58, 71, 68, 72, 17, 15, 27, 34, 13
              |34, 53, 18, 11, 34, 12, 64, 27, 50, 23, 22, 53, 40, 32, 76, 41, 43, 19, 76, 72, 45, 46, 46, 43, 19, 64, 46, 34, 55, 43, 73, 10, 73, 52, 71, 54, 32, 35, 85, 41, 18, 50, 53, 44, 64, 75, 59, 52, 18, 63, 48, 39, 33, 38, 83, 21, 17, 30, 67, 37, 34, 45, 78, 60, 33, 20, 15, 20, 27, 80, 22, 30, 51, 14, 19, 14, 36, 30, 67, 14, 26, 37, 47, 78, 52, 76, 40, 47, 21, 55, 47, 13, 30, 45, 6, 61, 80, 42, 68, 54
              |8, 94, 60, 53, 73, 54, 72, 64, 54, 58, 61, 90, 31, 35, 78, 24, 70, 49, 73, 77, 7, 23, 80, 33, 31, 74, 32, 76, 91, 84, 87, 52, 81, 69, 56, 57, 22, 68, 99, 65, 24, 13, 71, 65, 37, 47, 30, 78, 51, 86, 78, 26, 72, 13, 64, 50, 56, 32, 74, 72, 50, 19, 97, 90, 13, 22, 51, 62, 59, 68, 41, 71, 10, 28, 45, 47, 21, 57, 97, 34, 21, 64, 88, 91, 83, 94, 6, 89, 52, 28, 73, 31, 14, 3, 46, 73, 81, 42, 87, 61
              |71, 113, 91, 86, 88, 89, 34, 79, 34, 75, 81, 92, 99, 99, 23, 93, 64, 68, 14, 28, 64, 93, 79, 41, 88, 37, 101, 106, 91, 100, 49, 89, 35, 48, 15, 30, 88, 72, 54, 59, 74, 59, 50, 54, 37, 34, 44, 64, 72, 63, 71, 95, 88, 58, 15, 67, 82, 52, 32, 77, 51, 51, 59, 77, 62, 74, 96, 90, 71, 3, 97, 103, 68, 72, 98, 72, 88, 64, 80, 86, 82, 62, 115, 45, 75, 56, 64, 115, 69, 43, 64, 71, 78, 70, 88, 40, 23, 39, 56, 34
              |38, 56, 25, 21, 44, 19, 80, 40, 66, 37, 35, 64, 31, 21, 92, 35, 58, 35, 92, 89, 51, 41, 59, 56, 15, 80, 37, 35, 66, 50, 89, 17, 89, 69, 85, 70, 28, 50, 101, 57, 25, 57, 70, 61, 75, 86, 69, 67, 34, 79, 63, 32, 43, 47, 97, 38, 29, 44, 83, 51, 51, 55, 94, 74, 42, 26, 8, 28, 42, 95, 8, 30, 56, 24, 4, 30, 32, 46, 81, 12, 26, 53, 47, 95, 66, 92, 46, 48, 37, 66, 62, 25, 32, 49, 12, 78, 96, 57, 84, 70
              |69, 118, 94, 89, 93, 92, 42, 83, 39, 79, 85, 98, 97, 98, 32, 91, 70, 71, 23, 36, 60, 90, 85, 41, 88, 45, 99, 110, 97, 105, 57, 91, 44, 54, 12, 35, 86, 78, 63, 65, 74, 55, 57, 60, 32, 26, 39, 70, 75, 70, 77, 92, 93, 56, 6, 70, 85, 53, 40, 82, 55, 48, 68, 84, 60, 74, 97, 93, 75, 7, 97, 107, 63, 73, 98, 75, 86, 69, 88, 86, 81, 68, 119, 54, 82, 65, 62, 119, 73, 39, 70, 72, 76, 67, 89, 48, 32, 42, 64, 40
              |50, 76, 54, 50, 51, 53, 19, 42, 3, 38, 44, 58, 75, 72, 29, 71, 29, 31, 29, 26, 50, 73, 45, 22, 59, 21, 79, 69, 57, 64, 34, 53, 28, 18, 33, 7, 63, 36, 46, 24, 45, 48, 21, 20, 41, 48, 42, 33, 35, 37, 38, 71, 51, 40, 45, 30, 45, 23, 21, 40, 14, 38, 44, 47, 40, 46, 61, 53, 34, 37, 66, 66, 56, 42, 65, 36, 65, 27, 52, 55, 56, 26, 78, 37, 42, 41, 47, 78, 32, 39, 31, 39, 54, 55, 53, 20, 33, 11, 35, 8
              |58, 34, 12, 16, 28, 14, 79, 29, 69, 30, 24, 46, 54, 44, 93, 58, 50, 34, 95, 89, 69, 64, 46, 67, 37, 78, 60, 12, 49, 29, 83, 15, 87, 65, 94, 73, 51, 40, 94, 51, 42, 74, 65, 56, 88, 99, 84, 58, 31, 69, 52, 55, 26, 63, 106, 36, 21, 53, 82, 39, 52, 70, 86, 60, 58, 43, 15, 14, 35, 101, 31, 7, 75, 39, 26, 30, 55, 41, 67, 32, 47, 47, 24, 90, 53, 85, 64, 25, 34, 80, 54, 38, 52, 68, 20, 75, 97, 64, 76, 72
              |11, 76, 42, 35, 56, 35, 68, 48, 51, 42, 44, 74, 26, 24, 77, 23, 57, 35, 74, 75, 23, 26, 65, 34, 14, 69, 30, 57, 76, 66, 81, 33, 77, 61, 62, 54, 14, 53, 93, 54, 6, 29, 63, 55, 48, 60, 42, 66, 35, 76, 65, 22, 55, 20, 73, 36, 39, 25, 70, 57, 41, 28, 89, 77, 15, 4, 32, 43, 45, 73, 25, 52, 29, 11, 27, 31, 17, 44, 84, 16, 8, 52, 70, 85, 69, 86, 18, 70, 37, 39, 62, 15, 7, 22, 27, 67, 81, 40, 78, 57
              |59, 41, 27, 28, 16, 30, 43, 9, 38, 11, 15, 25, 73, 65, 58, 72, 12, 17, 62, 53, 66, 77, 14, 48, 52, 41, 78, 37, 26, 28, 45, 31, 50, 28, 68, 42, 64, 2, 56, 14, 45, 68, 27, 19, 71, 80, 70, 20, 16, 31, 15, 71, 17, 56, 80, 15, 19, 37, 46, 6, 23, 60, 48, 26, 53, 47, 42, 25, 7, 72, 54, 36, 73, 40, 51, 21, 67, 9, 34, 47, 57, 10, 44, 52, 19, 46, 61, 43, 14, 66, 16, 36, 59, 69, 36, 38, 62, 39, 38, 38
              |57, 82, 61, 58, 57, 61, 13, 48, 5, 44, 51, 61, 82, 79, 21, 78, 33, 39, 22, 18, 55, 80, 48, 27, 66, 15, 86, 76, 60, 69, 30, 61, 21, 18, 30, 3, 71, 41, 40, 28, 53, 53, 21, 23, 42, 47, 45, 34, 42, 36, 40, 78, 57, 46, 41, 37, 52, 31, 14, 45, 21, 43, 40, 48, 47, 54, 69, 60, 40, 31, 74, 73, 61, 50, 73, 43, 73, 34, 53, 63, 64, 31, 84, 31, 45, 37, 53, 84, 40, 42, 33, 47, 61, 61, 61, 16, 25, 17, 32, 3
              |68, 25, 19, 25, 27, 23, 84, 32, 75, 35, 28, 43, 64, 54, 98, 68, 53, 41, 101, 93, 80, 75, 45, 75, 47, 82, 70, 4, 46, 24, 86, 24, 91, 69, 102, 79, 61, 42, 96, 55, 52, 84, 68, 60, 98, 108, 94, 60, 38, 70, 52, 65, 26, 73, 114, 42, 27, 62, 87, 40, 58, 80, 88, 59, 68, 54, 25, 19, 39, 108, 41, 6, 85, 49, 36, 38, 65, 46, 65, 43, 57, 51, 14, 93, 53, 86, 74, 15, 40, 89, 56, 47, 63, 79, 30, 79, 102, 71, 78, 77
              |81, 10, 28, 35, 25, 34, 85, 34, 79, 39, 33, 34, 79, 69, 99, 83, 52, 47, 103, 94, 92, 89, 40, 83, 61, 83, 85, 13, 37, 15, 84, 36, 91, 69, 108, 83, 75, 42, 92, 55, 64, 96, 68, 60, 106, 117, 103, 57, 44, 66, 49, 80, 25, 84, 120, 48, 34, 70, 88, 38, 63, 90, 83, 53, 79, 66, 40, 27, 42, 113, 56, 18, 98, 60, 51, 46, 79, 49, 58, 57, 71, 51, 3, 91, 48, 82, 86, 2, 45, 99, 54, 58, 76, 91, 43, 79, 103, 77, 75, 80
              |9, 84, 50, 43, 65, 43, 76, 57, 59, 52, 54, 84, 19, 21, 84, 14, 67, 44, 81, 82, 21, 16, 75, 40, 17, 77, 22, 65, 86, 75, 90, 41, 85, 70, 66, 62, 8, 63, 102, 64, 16, 27, 72, 65, 50, 61, 43, 76, 45, 86, 75, 15, 64, 22, 76, 46, 48, 34, 78, 66, 50, 30, 98, 87, 18, 14, 39, 52, 54, 78, 27, 60, 24, 21, 31, 41, 9, 54, 94, 21, 7, 61, 77, 94, 79, 95, 17, 78, 47, 40, 71, 25, 3, 17, 35, 76, 88, 47, 88, 65
              |32, 55, 21, 14, 38, 14, 67, 31, 53, 27, 26, 57, 36, 28, 79, 37, 47, 23, 79, 76, 44, 43, 50, 44, 15, 67, 42, 36, 59, 46, 77, 12, 76, 56, 73, 57, 28, 40, 89, 45, 16, 49, 57, 48, 64, 75, 60, 56, 22, 67, 52, 35, 36, 38, 85, 26, 21, 31, 70, 42, 38, 45, 82, 64, 33, 18, 13, 23, 31, 82, 17, 31, 50, 13, 16, 18, 32, 34, 71, 10, 23, 42, 48, 82, 56, 80, 39, 49, 25, 55, 51, 13, 27, 43, 6, 65, 83, 44, 72, 57
              |27, 62, 29, 22, 39, 24, 54, 30, 38, 24, 27, 56, 42, 37, 65, 41, 39, 16, 64, 62, 36, 45, 47, 30, 24, 54, 47, 46, 58, 50, 65, 23, 63, 44, 58, 42, 32, 35, 77, 35, 13, 39, 46, 38, 51, 62, 47, 48, 17, 58, 46, 40, 38, 27, 70, 17, 23, 16, 56, 38, 25, 33, 72, 58, 23, 15, 28, 30, 26, 67, 31, 41, 42, 8, 30, 13, 35, 26, 65, 20, 25, 33, 57, 70, 51, 69, 30, 58, 19, 43, 43, 4, 26, 37, 20, 52, 69, 29, 61, 43
              |31, 58, 26, 19, 35, 21, 53, 26, 38, 20, 23, 52, 45, 39, 64, 44, 36, 12, 64, 61, 40, 48, 43, 32, 26, 52, 50, 43, 54, 47, 63, 20, 61, 42, 60, 42, 35, 31, 75, 33, 17, 43, 44, 35, 54, 64, 50, 45, 13, 55, 43, 43, 34, 31, 72, 14, 19, 18, 55, 34, 23, 37, 69, 55, 27, 18, 27, 26, 22, 68, 32, 38, 46, 11, 30, 9, 39, 22, 62, 21, 28, 30, 54, 68, 47, 67, 34, 54, 15, 46, 40, 8, 30, 41, 18, 50, 68, 30, 59, 42
              |65, 112, 88, 83, 86, 85, 36, 77, 33, 72, 79, 92, 93, 93, 28, 86, 63, 65, 19, 32, 57, 86, 79, 35, 82, 40, 95, 104, 91, 99, 52, 85, 39, 48, 8, 29, 81, 71, 59, 59, 68, 52, 51, 54, 29, 26, 36, 64, 69, 65, 71, 88, 87, 51, 10, 64, 79, 48, 35, 76, 49, 44, 63, 78, 55, 68, 91, 87, 69, 5, 92, 100, 60, 67, 93, 68, 82, 62, 82, 81, 76, 62, 113, 50, 75, 60, 57, 113, 67, 36, 64, 66, 71, 63, 83, 42, 29, 35, 59, 34
              |24, 93, 61, 55, 69, 57, 52, 59, 34, 53, 58, 82, 52, 53, 55, 46, 57, 43, 50, 55, 17, 45, 70, 12, 44, 54, 54, 78, 83, 81, 68, 55, 60, 52, 33, 36, 41, 59, 79, 52, 31, 14, 54, 50, 19, 30, 14, 64, 46, 70, 66, 47, 68, 11, 43, 43, 55, 20, 53, 63, 36, 4, 78, 77, 15, 30, 59, 62, 52, 45, 54, 74, 23, 32, 56, 43, 41, 48, 83, 44, 36, 52, 90, 70, 71, 75, 17, 90, 46, 10, 60, 33, 31, 23, 51, 54, 59, 23, 69, 41
              |55, 33, 6, 11, 23, 9, 73, 24, 63, 24, 18, 42, 55, 45, 87, 58, 45, 29, 89, 83, 67, 64, 40, 62, 36, 72, 61, 13, 45, 26, 78, 11, 81, 59, 89, 67, 50, 34, 88, 45, 39, 71, 59, 50, 84, 95, 80, 53, 25, 64, 46, 55, 21, 59, 101, 30, 15, 48, 77, 33, 46, 66, 81, 55, 55, 41, 16, 8, 29, 96, 32, 8, 73, 35, 27, 25, 54, 35, 62, 31, 46, 41, 25, 84, 48, 79, 61, 26, 28, 76, 48, 34, 50, 66, 17, 69, 91, 58, 70, 66
              |59, 110, 84, 79, 84, 82, 37, 74, 31, 70, 76, 91, 87, 88, 31, 81, 62, 62, 22, 34, 51, 80, 78, 31, 78, 40, 89, 101, 90, 97, 54, 81, 41, 48, 2, 28, 76, 70, 62, 57, 64, 46, 51, 53, 24, 22, 31, 64, 65, 65, 70, 83, 84, 46, 11, 61, 76, 43, 36, 74, 46, 39, 65, 78, 50, 63, 87, 84, 67, 10, 87, 97, 55, 63, 88, 65, 77, 60, 82, 76, 71, 60, 110, 52, 75, 62, 52, 110, 64, 30, 63, 61, 66, 58, 79, 43, 32, 32, 60, 33
              |19, 67, 33, 26, 47, 27, 63, 39, 47, 33, 35, 65, 32, 27, 73, 30, 49, 26, 72, 71, 30, 34, 57, 34, 14, 64, 37, 49, 67, 57, 75, 25, 72, 54, 62, 50, 21, 45, 87, 46, 3, 35, 56, 48, 52, 63, 46, 58, 27, 69, 56, 29, 46, 24, 74, 28, 30, 22, 66, 48, 35, 32, 82, 68, 19, 5, 26, 35, 36, 72, 23, 44, 36, 3, 24, 22, 25, 36, 76, 12, 14, 44, 61, 80, 61, 80, 25, 62, 29, 42, 54, 6, 16, 30, 19, 62, 77, 36, 72, 52
              |63, 95, 74, 70, 70, 73, 18, 61, 17, 58, 64, 75, 89, 88, 15, 84, 46, 52, 10, 16, 58, 85, 62, 31, 76, 21, 92, 89, 73, 83, 35, 73, 23, 30, 20, 13, 78, 55, 43, 42, 62, 55, 33, 37, 38, 40, 42, 46, 55, 46, 53, 85, 71, 50, 29, 50, 65, 39, 17, 59, 34, 45, 46, 60, 52, 62, 81, 73, 54, 18, 84, 87, 63, 59, 84, 56, 79, 47, 64, 73, 72, 45, 98, 34, 57, 43, 57, 97, 53, 40, 46, 57, 68, 64, 73, 24, 18, 25, 41, 16|];
