Warehouses = 15;
Stores = 34;

Capacity = [90, 100, 60, 70, 50, 40, 100, 60, 30, 100, 80, 100, 40, 50, 80];
FixedCost = [1080, 1070, 590, 780, 520, 510, 940, 760, 370, 750, 720, 1180, 430, 420, 570];
Goods = [8, 10, 15, 16, 17, 12, 10, 17, 13, 7, 5, 6, 17, 8, 17, 7, 20, 6, 14, 15, 13, 11, 6, 9, 7, 20, 14, 9, 14, 19, 20, 7, 15, 20];
SupplyCost = [|47, 23, 49, 66, 24, 39, 54, 83, 37, 55, 56, 54, 29, 42, 25
              |91, 22, 90, 107, 58, 77, 61, 80, 16, 96, 61, 80, 16, 85, 23
              |63, 51, 74, 53, 19, 72, 23, 51, 50, 42, 26, 15, 57, 67, 43
              |51, 18, 51, 72, 29, 40, 57, 85, 35, 61, 59, 60, 24, 45, 23
              |92, 28, 94, 100, 50, 84, 43, 60, 9, 88, 42, 65, 26, 88, 20
              |53, 18, 55, 69, 23, 46, 49, 77, 31, 57, 51, 52, 25, 49, 19
              |54, 31, 61, 60, 10, 55, 36, 65, 35, 48, 37, 36, 37, 54, 25
              |93, 49, 101, 89, 46, 94, 16, 31, 35, 78, 15, 45, 51, 94, 38
              |41, 32, 37, 70, 38, 24, 72, 100, 51, 60, 73, 69, 37, 32, 39
              |98, 72, 109, 82, 53, 106, 17, 16, 61, 73, 16, 34, 75, 102, 61
              |30, 66, 45, 21, 30, 51, 62, 88, 75, 10, 64, 39, 73, 39, 64
              |43, 45, 53, 44, 6, 51, 42, 71, 51, 32, 44, 30, 51, 46, 41
              |103, 76, 113, 85, 57, 111, 22, 13, 65, 77, 20, 38, 79, 106, 65
              |54, 42, 64, 52, 7, 61, 31, 60, 44, 41, 33, 25, 48, 57, 35
              |51, 24, 55, 63, 16, 47, 45, 74, 34, 52, 47, 46, 31, 48, 22
              |40, 38, 34, 73, 46, 19, 80, 108, 57, 64, 81, 76, 43, 30, 47
              |75, 7, 73, 94, 47, 60, 60, 84, 20, 83, 61, 73, 2, 68, 16
              |68, 86, 83, 36, 47, 88, 52, 67, 86, 33, 53, 23, 92, 77, 79
              |77, 75, 90, 53, 41, 91, 32, 47, 72, 46, 33, 10, 80, 83, 66
              |56, 93, 72, 17, 53, 80, 70, 89, 98, 21, 72, 41, 99, 67, 88
              |96, 67, 106, 82, 50, 103, 13, 18, 56, 72, 11, 34, 70, 99, 56
              |38, 77, 54, 11, 39, 62, 65, 89, 84, 2, 67, 38, 83, 49, 74
              |43, 85, 59, 5, 47, 68, 71, 94, 93, 10, 73, 43, 92, 54, 82
              |101, 54, 108, 96, 53, 101, 22, 29, 38, 85, 20, 51, 54, 101, 42
              |70, 95, 86, 33, 55, 92, 62, 77, 96, 33, 64, 34, 101, 80, 88
              |55, 72, 70, 31, 32, 74, 46, 68, 74, 23, 48, 17, 78, 64, 66
              |75, 22, 79, 82, 32, 70, 33, 58, 15, 70, 34, 50, 25, 72, 11
              |66, 36, 73, 65, 18, 68, 23, 52, 34, 53, 25, 31, 41, 66, 27
              |42, 54, 55, 35, 15, 56, 45, 72, 60, 24, 47, 26, 61, 48, 50
              |53, 75, 68, 26, 35, 73, 51, 72, 78, 19, 53, 22, 81, 62, 70
              |31, 63, 45, 24, 27, 50, 59, 86, 72, 13, 61, 37, 70, 39, 61
              |89, 73, 100, 69, 46, 99, 20, 30, 65, 61, 21, 22, 77, 93, 62
              |33, 40, 29, 64, 39, 17, 75, 104, 58, 55, 77, 69, 45, 24, 46
              |24, 53, 16, 61, 47, 6, 85, 114, 71, 54, 87, 75, 59, 13, 59|];
