Warehouses = 200;
Stores = 501;

Capacity = [70, 50, 60, 70, 100, 70, 60, 70, 60, 70, 60, 80, 90, 100, 80, 40, 100, 70, 80, 100, 30, 70, 40, 30, 40, 30, 100, 30, 50, 30, 80, 60, 90, 40, 50, 70, 90, 100, 80, 30, 100, 60, 90, 40, 30, 70, 100, 80, 60, 50, 90, 90, 60, 40, 90, 90, 50, 80, 30, 30, 80, 40, 90, 90, 60, 80, 40, 80, 40, 30, 50, 100, 50, 100, 60, 60, 70, 70, 70, 40, 70, 100, 40, 80, 30, 60, 30, 90, 60, 100, 30, 70, 60, 70, 80, 90, 40, 40, 70, 90, 50, 70, 40, 30, 70, 100, 100, 40, 30, 50, 70, 40, 100, 50, 50, 60, 100, 40, 70, 50, 60, 40, 60, 80, 90, 90, 100, 70, 40, 70, 80, 70, 90, 70, 60, 80, 60, 30, 40, 40, 30, 100, 80, 70, 90, 60, 50, 30, 80, 30, 100, 70, 40, 60, 70, 30, 70, 70, 50, 100, 100, 60, 30, 90, 40, 30, 50, 30, 80, 80, 30, 60, 40, 80, 80, 100, 40, 100, 60, 40, 50, 80, 80, 90, 40, 30, 90, 40, 40, 100, 80, 70, 60, 50, 40, 80, 40, 100, 40, 60];
FixedCost = [850, 550, 520, 850, 1060, 810, 420, 910, 660, 890, 590, 970, 800, 820, 810, 290, 740, 820, 940, 870, 280, 620, 400, 220, 300, 270, 1110, 380, 570, 350, 830, 540, 890, 440, 650, 880, 780, 800, 890, 390, 1120, 660, 720, 290, 340, 640, 770, 840, 750, 440, 900, 970, 650, 300, 1000, 750, 600, 920, 240, 250, 710, 480, 1040, 1090, 740, 890, 320, 560, 430, 320, 490, 720, 520, 820, 460, 600, 500, 830, 640, 330, 540, 1240, 430, 630, 290, 700, 380, 720, 520, 1050, 280, 870, 780, 640, 800, 1050, 410, 410, 620, 630, 550, 800, 410, 330, 900, 1220, 1210, 330, 330, 440, 610, 350, 1280, 360, 480, 680, 1210, 450, 550, 650, 750, 280, 710, 560, 710, 790, 1150, 720, 450, 790, 1040, 650, 830, 670, 640, 680, 690, 390, 350, 500, 270, 1300, 1040, 760, 830, 590, 350, 210, 930, 230, 720, 850, 430, 520, 780, 320, 560, 580, 600, 850, 1300, 560, 350, 1050, 460, 250, 630, 300, 730, 970, 280, 710, 410, 850, 620, 1030, 370, 900, 780, 520, 490, 670, 840, 850, 440, 210, 840, 420, 470, 860, 710, 750, 760, 500, 450, 710, 520, 840, 520, 780];
Goods = [5, 11, 15, 7, 7, 14, 15, 18, 7, 9, 13, 5, 17, 5, 15, 12, 14, 20, 18, 8, 16, 8, 6, 19, 12, 15, 5, 20, 10, 5, 18, 9, 6, 9, 8, 15, 13, 13, 7, 12, 7, 13, 9, 12, 12, 18, 5, 19, 7, 11, 7, 10, 8, 20, 8, 11, 12, 17, 9, 19, 16, 8, 18, 10, 6, 6, 12, 8, 6, 11, 17, 18, 15, 14, 10, 14, 7, 16, 9, 14, 9, 5, 7, 16, 9, 14, 10, 9, 16, 19, 6, 18, 6, 20, 5, 15, 19, 16, 19, 17, 13, 14, 13, 17, 6, 14, 13, 12, 8, 8, 10, 5, 20, 8, 19, 8, 7, 20, 13, 6, 18, 19, 10, 12, 16, 17, 5, 20, 11, 18, 18, 12, 20, 20, 12, 13, 15, 8, 7, 8, 15, 17, 7, 20, 18, 18, 11, 6, 7, 15, 12, 9, 5, 13, 20, 10, 8, 18, 6, 12, 10, 11, 9, 6, 7, 10, 7, 11, 16, 13, 14, 19, 7, 17, 13, 19, 19, 12, 14, 6, 15, 13, 12, 16, 17, 17, 10, 7, 7, 6, 11, 9, 18, 5, 19, 9, 8, 9, 5, 8, 5, 15, 8, 11, 13, 18, 10, 10, 10, 12, 19, 6, 9, 13, 20, 16, 10, 5, 11, 10, 16, 14, 16, 8, 14, 20, 12, 12, 7, 17, 11, 16, 5, 14, 13, 13, 10, 5, 12, 14, 5, 16, 6, 8, 20, 5, 12, 11, 20, 20, 11, 13, 12, 9, 11, 10, 10, 5, 7, 6, 19, 19, 6, 11, 19, 17, 16, 16, 17, 19, 10, 19, 18, 9, 5, 16, 9, 11, 19, 14, 5, 19, 13, 8, 12, 11, 16, 5, 8, 16, 5, 17, 6, 14, 14, 11, 10, 16, 7, 9, 10, 8, 12, 18, 5, 7, 11, 10, 8, 12, 10, 14, 8, 5, 5, 12, 10, 10, 13, 19, 8, 15, 10, 20, 12, 15, 6, 8, 16, 10, 14, 5, 16, 14, 8, 7, 13, 6, 13, 8, 8, 17, 18, 15, 15, 18, 8, 14, 10, 19, 12, 14, 17, 13, 16, 7, 12, 12, 13, 7, 10, 17, 18, 8, 17, 13, 18, 12, 7, 16, 16, 17, 6, 13, 10, 11, 10, 5, 18, 6, 14, 13, 18, 16, 11, 14, 10, 8, 14, 9, 16, 17, 20, 16, 14, 9, 6, 5, 13, 16, 19, 15, 6, 18, 10, 6, 7, 18, 6, 16, 9, 8, 18, 11, 6, 7, 16, 20, 17, 14, 20, 16, 19, 12, 5, 13, 5, 11, 12, 17, 6, 5, 18, 14, 11, 10, 18, 9, 11, 12, 6, 14, 11, 16, 19, 20, 8, 14, 9, 13, 9, 10, 17, 9, 13, 20, 10, 13, 19, 18, 15, 14, 19, 9, 18, 10, 11, 20, 20, 20, 20, 16, 8, 12, 8, 19, 13, 13, 20, 9, 19, 16, 9, 5, 16, 11, 6, 11, 20, 8, 6, 18, 15, 16, 16, 7, 9, 20, 8, 19, 9];
SupplyCost = [|59, 50, 34, 48, 29, 36, 18, 37, 74, 11, 52, 48, 27, 73, 38, 10, 67, 5, 42, 58, 64, 28, 62, 81, 49, 30, 9, 31, 46, 63, 21, 67, 24, 49, 30, 47, 20, 44, 56, 28, 39, 39, 18, 39, 40, 9, 46, 31, 49, 74, 68, 35, 29, 52, 41, 43, 60, 9, 24, 68, 37, 34, 55, 19, 46, 41, 77, 23, 24, 31, 54, 33, 42, 44, 46, 42, 21, 50, 60, 69, 60, 34, 25, 29, 15, 30, 32, 79, 49, 44, 34, 44, 11, 68, 41, 30, 42, 70, 23, 56, 35, 32, 55, 42, 48, 22, 55, 28, 53, 82, 53, 72, 44, 45, 36, 58, 70, 65, 33, 36, 21, 25, 48, 57, 73, 70, 22, 27, 65, 46, 46, 55, 8, 63, 41, 39, 44, 48, 52, 52, 32, 87, 80, 14, 44, 28, 39, 30, 35, 37, 74, 14, 71, 31, 43, 26, 11, 6, 40, 31, 41, 40, 57, 32, 48, 22, 37, 60, 56, 28, 10, 18, 9, 64, 32, 28, 56, 61, 35, 72, 75, 26, 52, 50, 42, 14, 29, 43, 68, 36, 38, 43, 41, 59, 75, 57, 83, 65, 43, 10
              |54, 31, 53, 24, 53, 49, 46, 70, 77, 45, 56, 27, 36, 43, 66, 43, 37, 32, 21, 54, 42, 47, 30, 47, 32, 54, 42, 55, 51, 70, 49, 37, 41, 29, 60, 31, 45, 78, 46, 53, 24, 40, 36, 67, 9, 27, 42, 61, 62, 45, 40, 60, 49, 49, 8, 77, 46, 29, 11, 34, 44, 4, 22, 36, 29, 36, 79, 20, 51, 29, 46, 53, 10, 78, 13, 62, 15, 28, 67, 61, 28, 67, 35, 10, 36, 15, 44, 83, 16, 76, 61, 78, 45, 76, 73, 16, 47, 39, 38, 50, 65, 57, 24, 36, 82, 36, 54, 62, 51, 50, 69, 77, 12, 22, 30, 51, 62, 44, 30, 51, 31, 39, 19, 71, 45, 38, 18, 31, 58, 12, 26, 21, 38, 55, 9, 37, 22, 18, 25, 29, 19, 54, 82, 45, 61, 55, 40, 58, 36, 66, 44, 31, 44, 62, 52, 30, 25, 35, 69, 58, 9, 22, 54, 17, 34, 12, 71, 57, 71, 62, 37, 48, 26, 68, 38, 57, 50, 51, 69, 40, 41, 34, 67, 40, 22, 21, 56, 74, 59, 68, 70, 33, 46, 72, 44, 38, 50, 54, 70, 44
              |91, 27, 96, 55, 95, 67, 77, 102, 72, 84, 96, 27, 79, 2, 94, 82, 5, 72, 57, 52, 20, 71, 17, 22, 31, 80, 81, 98, 61, 73, 91, 5, 67, 62, 101, 66, 74, 112, 81, 81, 62, 81, 64, 94, 34, 64, 47, 92, 75, 4, 5, 85, 91, 50, 35, 112, 34, 70, 52, 28, 86, 45, 22, 78, 32, 75, 74, 63, 93, 49, 43, 96, 42, 115, 30, 82, 57, 59, 72, 48, 15, 107, 59, 53, 67, 57, 64, 79, 28, 107, 88, 114, 83, 78, 104, 58, 88, 4, 81, 87, 93, 83, 44, 44, 117, 79, 54, 100, 89, 13, 82, 75, 41, 28, 45, 46, 50, 22, 71, 94, 74, 64, 47, 82, 5, 10, 61, 54, 49, 37, 30, 29, 79, 46, 43, 49, 57, 25, 20, 23, 41, 21, 77, 85, 79, 84, 52, 100, 52, 93, 4, 64, 8, 93, 64, 73, 66, 71, 97, 100, 42, 59, 53, 41, 34, 52, 109, 53, 84, 100, 79, 80, 63, 70, 56, 86, 87, 42, 105, 9, 16, 77, 80, 76, 31, 59, 98, 103, 46, 99, 101, 39, 58, 82, 5, 27, 19, 41, 95, 80
              |110, 25, 100, 77, 97, 44, 63, 84, 33, 77, 110, 29, 87, 41, 72, 77, 38, 71, 76, 18, 20, 52, 49, 61, 23, 59, 77, 99, 33, 38, 89, 38, 50, 84, 97, 86, 59, 96, 102, 62, 79, 94, 52, 72, 48, 59, 23, 74, 45, 37, 35, 64, 95, 20, 52, 97, 9, 70, 59, 63, 97, 59, 49, 82, 26, 91, 35, 72, 92, 37, 15, 100, 62, 102, 50, 55, 64, 82, 37, 9, 44, 98, 45, 64, 56, 70, 44, 40, 50, 88, 67, 100, 76, 41, 85, 71, 100, 42, 86, 106, 73, 62, 71, 26, 102, 84, 21, 89, 106, 52, 51, 37, 62, 34, 32, 13, 11, 17, 84, 100, 80, 48, 71, 49, 35, 47, 69, 41, 11, 59, 29, 57, 76, 9, 62, 30, 77, 43, 35, 28, 40, 60, 38, 82, 52, 66, 32, 98, 34, 72, 43, 55, 31, 76, 37, 82, 68, 64, 76, 99, 61, 77, 19, 41, 22, 57, 97, 18, 52, 91, 78, 66, 60, 34, 38, 67, 106, 9, 92, 47, 54, 85, 49, 96, 34, 58, 97, 82, 7, 80, 82, 26, 33, 48, 44, 18, 58, 4, 71, 71
              |87, 80, 53, 86, 44, 46, 29, 7, 81, 28, 76, 79, 57, 107, 21, 31, 101, 42, 79, 74, 92, 38, 98, 117, 77, 31, 33, 44, 58, 67, 36, 101, 41, 86, 30, 83, 32, 6, 88, 28, 75, 69, 41, 22, 76, 44, 67, 16, 52, 107, 101, 28, 49, 70, 78, 7, 84, 46, 61, 106, 64, 72, 92, 49, 75, 74, 83, 60, 39, 58, 75, 50, 80, 13, 83, 39, 59, 87, 65, 87, 95, 20, 47, 67, 38, 67, 46, 83, 85, 9, 24, 10, 28, 71, 10, 67, 68, 104, 52, 86, 18, 28, 93, 66, 12, 52, 71, 14, 81, 117, 51, 76, 82, 78, 62, 77, 87, 93, 67, 56, 54, 43, 86, 55, 106, 105, 60, 53, 82, 84, 76, 93, 37, 82, 79, 61, 81, 83, 86, 83, 64, 123, 84, 33, 43, 24, 59, 36, 57, 21, 108, 42, 102, 14, 54, 60, 49, 37, 19, 40, 79, 77, 73, 65, 75, 59, 13, 76, 52, 17, 40, 26, 45, 70, 52, 23, 86, 81, 7, 107, 110, 57, 51, 83, 75, 50, 40, 15, 87, 11, 9, 69, 57, 58, 109, 84, 119, 86, 25, 28
              |90, 47, 65, 72, 58, 9, 15, 31, 47, 33, 83, 47, 58, 76, 20, 35, 70, 37, 67, 37, 58, 4, 71, 89, 43, 6, 36, 59, 21, 34, 48, 70, 10, 76, 52, 75, 12, 43, 86, 9, 66, 70, 16, 21, 51, 29, 31, 21, 19, 75, 69, 11, 59, 33, 55, 44, 48, 39, 44, 82, 69, 53, 65, 51, 42, 72, 49, 51, 52, 26, 38, 63, 61, 49, 58, 11, 45, 76, 31, 50, 67, 49, 16, 51, 17, 55, 10, 50, 60, 35, 14, 47, 32, 38, 32, 56, 73, 73, 55, 87, 21, 9, 75, 31, 49, 54, 34, 39, 84, 87, 22, 43, 63, 48, 29, 40, 50, 58, 63, 66, 52, 12, 70, 25, 73, 76, 49, 22, 45, 63, 45, 69, 38, 45, 60, 26, 69, 56, 56, 51, 36, 94, 51, 41, 12, 13, 23, 55, 23, 19, 77, 22, 69, 23, 17, 57, 40, 26, 23, 57, 60, 66, 36, 38, 41, 41, 46, 38, 24, 42, 41, 17, 30, 35, 18, 14, 87, 44, 40, 77, 82, 57, 21, 80, 44, 34, 56, 30, 50, 27, 30, 35, 20, 28, 78, 50, 90, 49, 21, 27
              |87, 53, 59, 73, 52, 17, 10, 23, 54, 28, 80, 53, 55, 82, 14, 30, 75, 34, 67, 45, 65, 9, 76, 94, 50, 2, 31, 53, 29, 41, 43, 75, 14, 75, 45, 74, 9, 35, 84, 1, 66, 67, 18, 15, 55, 28, 38, 13, 26, 81, 75, 7, 54, 41, 58, 36, 55, 37, 45, 85, 65, 55, 69, 47, 48, 70, 57, 50, 46, 31, 46, 57, 63, 41, 61, 15, 45, 76, 38, 58, 72, 41, 21, 52, 17, 55, 17, 57, 64, 28, 8, 39, 26, 45, 24, 55, 69, 79, 51, 84, 13, 4, 77, 38, 41, 50, 42, 32, 81, 92, 27, 50, 65, 53, 35, 48, 58, 65, 61, 62, 49, 16, 71, 31, 79, 81, 49, 26, 53, 65, 50, 72, 34, 53, 62, 33, 69, 60, 61, 57, 40, 99, 59, 35, 17, 5, 30, 49, 29, 13, 83, 22, 76, 15, 25, 54, 38, 23, 17, 51, 62, 66, 44, 42, 48, 42, 38, 47, 29, 34, 37, 11, 29, 43, 24, 6, 84, 52, 32, 82, 87, 54, 27, 78, 49, 34, 50, 23, 58, 20, 22, 42, 28, 34, 84, 56, 95, 57, 16, 21
              |72, 13, 66, 41, 64, 38, 43, 68, 59, 50, 73, 10, 51, 36, 61, 48, 29, 39, 40, 36, 26, 39, 29, 47, 14, 47, 48, 66, 36, 54, 58, 29, 34, 47, 68, 50, 40, 78, 65, 48, 42, 57, 30, 62, 12, 30, 25, 58, 49, 36, 30, 53, 61, 31, 17, 78, 28, 37, 23, 40, 60, 22, 23, 48, 11, 54, 62, 35, 61, 17, 28, 66, 26, 80, 17, 52, 27, 46, 51, 43, 25, 72, 26, 27, 33, 33, 34, 66, 19, 74, 55, 80, 49, 59, 70, 34, 63, 33, 51, 69, 60, 51, 38, 19, 83, 49, 37, 66, 68, 45, 56, 60, 27, 7, 15, 33, 44, 28, 47, 65, 44, 31, 36, 57, 35, 34, 33, 21, 40, 25, 8, 28, 46, 37, 26, 21, 40, 14, 14, 13, 7, 52, 65, 52, 50, 51, 25, 67, 22, 60, 37, 29, 32, 60, 38, 45, 34, 37, 64, 68, 25, 40, 37, 7, 16, 21, 75, 39, 58, 66, 46, 46, 29, 52, 26, 52, 69, 33, 71, 35, 40, 49, 54, 59, 4, 26, 66, 70, 40, 65, 67, 15, 31, 58, 38, 21, 48, 36, 63, 46
              |65, 65, 33, 62, 26, 42, 19, 25, 81, 5, 56, 63, 34, 89, 31, 8, 83, 19, 55, 67, 78, 33, 79, 97, 63, 30, 9, 26, 53, 68, 16, 83, 31, 62, 18, 59, 23, 29, 65, 27, 52, 46, 28, 32, 56, 25, 57, 23, 53, 90, 84, 32, 28, 62, 57, 28, 73, 23, 40, 84, 42, 50, 72, 26, 60, 51, 83, 37, 19, 44, 65, 31, 58, 28, 62, 42, 37, 64, 65, 80, 76, 18, 35, 44, 24, 44, 39, 84, 65, 31, 29, 28, 5, 72, 29, 44, 47, 86, 29, 64, 27, 30, 70, 54, 32, 29, 64, 12, 59, 98, 55, 77, 60, 61, 49, 69, 80, 79, 43, 36, 30, 33, 64, 59, 89, 86, 37, 39, 75, 62, 61, 72, 14, 74, 57, 50, 58, 64, 68, 67, 47, 104, 85, 10, 45, 24, 49, 21, 46, 31, 90, 26, 86, 22, 50, 36, 26, 17, 32, 24, 57, 54, 66, 47, 62, 38, 21, 69, 57, 12, 16, 17, 25, 69, 42, 24, 64, 72, 19, 88, 91, 34, 54, 60, 58, 30, 23, 33, 79, 26, 26, 56, 49, 62, 91, 71, 99, 77, 36, 9
              |96, 71, 64, 88, 56, 34, 24, 10, 65, 34, 87, 72, 64, 100, 5, 37, 94, 45, 81, 61, 83, 28, 94, 112, 68, 19, 39, 56, 45, 51, 47, 94, 32, 89, 44, 87, 25, 21, 95, 18, 79, 77, 35, 5, 72, 43, 55, 9, 36, 99, 93, 14, 59, 57, 75, 23, 73, 49, 61, 103, 73, 71, 87, 56, 66, 81, 67, 63, 50, 50, 63, 61, 79, 30, 79, 23, 60, 90, 49, 74, 90, 36, 39, 67, 34, 69, 35, 66, 82, 11, 11, 26, 33, 54, 8, 69, 77, 97, 60, 94, 5, 16, 93, 56, 27, 59, 57, 28, 90, 110, 34, 60, 82, 71, 54, 65, 73, 83, 72, 67, 59, 35, 87, 38, 98, 100, 62, 45, 69, 82, 69, 90, 43, 69, 78, 51, 83, 79, 79, 75, 59, 117, 68, 41, 27, 15, 48, 49, 47, 6, 102, 39, 94, 9, 40, 65, 51, 36, 2, 52, 78, 80, 59, 60, 66, 58, 30, 62, 35, 30, 46, 22, 44, 54, 42, 13, 94, 69, 23, 101, 105, 64, 35, 90, 68, 49, 52, 5, 74, 6, 8, 60, 44, 41, 102, 75, 113, 74, 8, 30
              |100, 50, 75, 81, 68, 10, 26, 36, 38, 44, 94, 51, 69, 79, 23, 45, 73, 47, 76, 33, 59, 14, 76, 94, 46, 14, 47, 69, 18, 25, 59, 73, 19, 85, 61, 84, 23, 48, 96, 17, 76, 80, 26, 23, 58, 39, 31, 27, 9, 77, 72, 15, 69, 31, 62, 50, 47, 50, 53, 88, 79, 61, 71, 61, 45, 82, 41, 61, 62, 31, 37, 73, 69, 56, 64, 5, 55, 85, 22, 46, 72, 57, 24, 61, 28, 65, 15, 41, 67, 39, 19, 53, 42, 29, 36, 65, 84, 77, 65, 97, 25, 15, 83, 33, 54, 64, 30, 48, 94, 90, 11, 34, 71, 52, 34, 38, 45, 59, 73, 77, 62, 21, 78, 15, 75, 80, 59, 28, 41, 70, 48, 76, 49, 42, 68, 29, 78, 62, 60, 54, 42, 98, 42, 51, 2, 21, 25, 65, 26, 22, 81, 32, 71, 29, 13, 67, 50, 36, 26, 67, 68, 76, 32, 44, 43, 50, 53, 34, 14, 50, 52, 27, 40, 27, 22, 22, 97, 42, 47, 81, 87, 68, 11, 90, 49, 44, 66, 33, 46, 32, 34, 38, 19, 18, 81, 51, 94, 47, 21, 37
              |83, 80, 48, 83, 40, 49, 29, 12, 84, 25, 72, 79, 53, 107, 25, 28, 100, 39, 76, 76, 93, 40, 98, 116, 77, 33, 30, 39, 61, 70, 32, 100, 42, 83, 26, 79, 33, 8, 84, 30, 72, 65, 42, 26, 75, 43, 68, 19, 55, 107, 101, 31, 44, 72, 77, 7, 85, 43, 60, 104, 60, 70, 91, 46, 75, 71, 87, 57, 34, 58, 76, 45, 78, 10, 81, 42, 57, 84, 68, 89, 95, 15, 48, 64, 38, 65, 48, 86, 84, 14, 27, 9, 25, 74, 15, 64, 64, 104, 48, 82, 22, 31, 91, 67, 12, 49, 73, 10, 77, 116, 54, 80, 80, 78, 63, 79, 89, 94, 63, 52, 50, 44, 84, 58, 106, 105, 57, 53, 84, 82, 77, 91, 34, 84, 77, 62, 78, 83, 85, 83, 64, 122, 88, 30, 46, 26, 60, 32, 58, 25, 108, 42, 103, 17, 56, 56, 47, 35, 23, 35, 77, 74, 75, 65, 76, 58, 8, 78, 56, 12, 37, 26, 44, 73, 53, 25, 82, 83, 2, 106, 110, 54, 55, 80, 74, 49, 35, 20, 89, 15, 14, 70, 58, 62, 109, 85, 118, 88, 30, 26
              |47, 42, 38, 28, 37, 47, 36, 58, 80, 31, 46, 38, 22, 59, 57, 29, 53, 17, 22, 59, 54, 41, 45, 62, 42, 46, 27, 40, 52, 71, 34, 53, 36, 30, 45, 29, 36, 64, 42, 45, 21, 30, 29, 58, 24, 17, 46, 51, 60, 60, 55, 52, 33, 53, 23, 64, 55, 13, 6, 49, 32, 14, 38, 20, 39, 28, 83, 7, 35, 31, 52, 38, 22, 64, 29, 57, 1, 31, 68, 68, 44, 52, 32, 8, 28, 10, 41, 86, 31, 64, 52, 64, 31, 77, 61, 10, 35, 55, 23, 44, 54, 49, 34, 41, 68, 21, 58, 48, 43, 65, 66, 79, 24, 34, 34, 57, 69, 56, 20, 37, 16, 35, 28, 68, 60, 54, 5, 31, 65, 26, 37, 36, 23, 62, 21, 40, 24, 33, 39, 41, 25, 70, 86, 30, 57, 46, 42, 42, 37, 56, 59, 24, 58, 51, 51, 17, 10, 23, 59, 42, 21, 21, 59, 23, 43, 8, 57, 62, 68, 48, 22, 37, 16, 70, 37, 47, 44, 59, 55, 56, 57, 20, 64, 36, 32, 11, 40, 63, 67, 57, 58, 39, 46, 71, 59, 49, 66, 63, 61, 31
              |51, 63, 22, 50, 16, 49, 28, 39, 87, 11, 42, 60, 20, 84, 44, 8, 78, 11, 43, 71, 76, 40, 71, 89, 61, 40, 6, 18, 59, 75, 8, 78, 37, 49, 18, 46, 30, 42, 51, 37, 39, 32, 31, 45, 49, 22, 59, 36, 61, 85, 79, 43, 16, 65, 49, 41, 73, 13, 31, 75, 28, 41, 64, 12, 58, 37, 90, 25, 11, 44, 67, 20, 48, 39, 55, 52, 27, 51, 72, 83, 70, 26, 38, 34, 28, 33, 44, 92, 57, 45, 41, 40, 12, 80, 43, 32, 33, 80, 15, 50, 40, 41, 59, 55, 45, 15, 69, 24, 45, 91, 64, 84, 50, 57, 49, 71, 83, 78, 30, 24, 17, 38, 52, 68, 84, 80, 25, 41, 78, 52, 58, 63, 5, 76, 47, 52, 45, 58, 63, 63, 44, 96, 92, 4, 54, 36, 52, 17, 48, 43, 85, 27, 82, 35, 56, 23, 17, 18, 45, 18, 47, 41, 70, 44, 61, 31, 32, 73, 66, 23, 4, 26, 22, 76, 45, 36, 50, 74, 32, 81, 83, 20, 64, 46, 54, 25, 16, 47, 81, 40, 40, 56, 54, 71, 85, 69, 92, 79, 49, 16
              |113, 53, 89, 92, 82, 20, 39, 47, 27, 57, 107, 56, 82, 82, 33, 59, 76, 60, 87, 30, 60, 27, 82, 98, 49, 28, 60, 83, 19, 13, 72, 76, 32, 96, 75, 96, 36, 59, 108, 31, 87, 93, 38, 33, 66, 51, 33, 39, 6, 79, 74, 27, 83, 30, 70, 61, 47, 63, 64, 94, 92, 71, 77, 74, 50, 94, 29, 73, 76, 39, 37, 87, 78, 68, 72, 16, 66, 96, 12, 41, 77, 70, 35, 72, 41, 76, 25, 28, 74, 49, 31, 64, 56, 16, 46, 77, 97, 80, 79, 110, 36, 28, 92, 37, 65, 77, 27, 61, 107, 93, 4, 22, 80, 58, 40, 36, 40, 59, 85, 91, 75, 32, 88, 2, 77, 84, 71, 37, 37, 79, 53, 83, 62, 38, 78, 34, 89, 68, 65, 58, 50, 101, 30, 65, 13, 34, 30, 79, 33, 33, 83, 44, 73, 41, 17, 80, 63, 50, 36, 81, 77, 87, 29, 52, 46, 61, 66, 30, 4, 63, 65, 41, 52, 17, 31, 35, 110, 40, 59, 85, 91, 81, 3, 102, 55, 55, 80, 42, 42, 43, 45, 42, 24, 4, 84, 53, 98, 44, 30, 51
              |69, 28, 75, 32, 76, 63, 66, 90, 79, 68, 74, 24, 58, 22, 85, 66, 18, 55, 35, 57, 31, 63, 6, 24, 32, 71, 65, 78, 60, 76, 73, 18, 58, 40, 84, 44, 64, 99, 59, 72, 40, 59, 54, 86, 17, 49, 47, 81, 73, 26, 22, 77, 71, 53, 16, 99, 42, 52, 34, 15, 64, 25, 2, 59, 30, 53, 82, 43, 74, 41, 47, 76, 20, 100, 11, 77, 38, 37, 74, 58, 8, 90, 51, 32, 56, 36, 58, 86, 8, 97, 79, 100, 68, 82, 93, 37, 66, 18, 60, 65, 84, 75, 22, 42, 104, 59, 58, 85, 67, 27, 81, 81, 19, 21, 39, 51, 60, 34, 49, 73, 53, 55, 25, 81, 26, 15, 41, 46, 57, 15, 26, 7, 62, 54, 21, 45, 34, 11, 16, 23, 31, 31, 85, 68, 75, 74, 49, 81, 47, 84, 22, 51, 27, 82, 62, 52, 48, 57, 88, 81, 20, 37, 57, 30, 35, 35, 94, 59, 82, 85, 61, 68, 48, 74, 50, 76, 65, 49, 91, 17, 18, 56, 78, 54, 24, 43, 79, 94, 56, 88, 90, 37, 55, 82, 22, 33, 27, 51, 87, 66
              |68, 17, 64, 35, 63, 43, 46, 71, 65, 51, 69, 13, 48, 34, 65, 49, 28, 39, 34, 43, 29, 44, 24, 43, 19, 51, 48, 65, 42, 60, 58, 28, 38, 42, 68, 44, 44, 81, 60, 52, 37, 53, 34, 66, 6, 31, 31, 62, 55, 35, 29, 58, 59, 38, 10, 81, 33, 37, 20, 34, 57, 17, 18, 46, 16, 49, 68, 32, 60, 22, 34, 64, 20, 82, 11, 57, 25, 40, 58, 48, 21, 74, 31, 23, 36, 28, 39, 72, 13, 77, 59, 82, 50, 66, 74, 29, 60, 31, 49, 64, 64, 55, 32, 25, 86, 47, 43, 67, 64, 43, 62, 66, 21, 9, 21, 39, 50, 31, 43, 63, 42, 35, 30, 63, 34, 31, 30, 26, 45, 18, 13, 22, 46, 43, 20, 27, 35, 9, 13, 16, 11, 49, 71, 52, 56, 55, 31, 67, 28, 64, 35, 32, 33, 63, 44, 42, 33, 38, 68, 67, 19, 35, 43, 10, 21, 19, 76, 45, 64, 68, 46, 49, 30, 58, 31, 56, 64, 38, 73, 33, 36, 46, 60, 54, 8, 26, 65, 74, 46, 69, 71, 21, 37, 64, 36, 25, 45, 41, 68, 48
              |92, 33, 98, 56, 99, 73, 82, 107, 77, 88, 98, 32, 82, 4, 99, 86, 10, 76, 59, 57, 25, 76, 18, 17, 37, 85, 85, 101, 66, 79, 95, 10, 72, 63, 105, 67, 79, 117, 82, 86, 64, 83, 69, 100, 38, 68, 52, 97, 80, 7, 11, 91, 94, 55, 38, 117, 39, 73, 56, 27, 88, 48, 24, 82, 37, 77, 79, 66, 97, 54, 49, 99, 44, 119, 33, 87, 60, 60, 77, 53, 17, 111, 64, 56, 72, 60, 70, 84, 31, 112, 93, 119, 88, 83, 109, 61, 90, 7, 84, 88, 98, 88, 44, 49, 122, 82, 60, 104, 90, 8, 87, 80, 43, 33, 50, 51, 55, 27, 73, 97, 77, 69, 48, 87, 9, 9, 64, 59, 54, 39, 35, 30, 83, 51, 45, 54, 58, 29, 25, 29, 46, 16, 82, 89, 84, 89, 58, 104, 57, 98, 2, 68, 13, 98, 70, 75, 70, 75, 102, 103, 44, 61, 58, 46, 39, 56, 113, 59, 89, 105, 82, 85, 67, 75, 62, 91, 88, 47, 110, 7, 13, 80, 85, 78, 36, 63, 101, 108, 51, 104, 106, 44, 63, 87, 2, 33, 14, 46, 100, 85
              |32, 69, 12, 39, 16, 65, 46, 59, 102, 31, 23, 65, 5, 84, 64, 28, 79, 24, 32, 84, 81, 57, 69, 85, 69, 59, 26, 18, 74, 91, 20, 79, 53, 35, 30, 31, 49, 60, 32, 56, 27, 13, 47, 65, 50, 34, 71, 56, 79, 87, 81, 63, 10, 78, 49, 58, 82, 22, 33, 69, 9, 38, 63, 10, 66, 20, 105, 21, 19, 55, 78, 14, 43, 55, 54, 71, 28, 38, 89, 94, 69, 41, 52, 31, 44, 27, 60, 107, 56, 64, 61, 58, 32, 97, 63, 26, 13, 80, 6, 30, 60, 60, 50, 66, 62, 7, 82, 42, 25, 90, 82, 100, 45, 61, 60, 83, 95, 84, 16, 10, 11, 53, 44, 86, 86, 78, 23, 53, 90, 48, 64, 59, 23, 88, 42, 64, 34, 59, 66, 68, 52, 93, 108, 24, 73, 55, 65, 25, 61, 63, 85, 41, 85, 55, 72, 11, 24, 35, 65, 22, 43, 30, 83, 50, 69, 35, 49, 86, 85, 40, 20, 46, 34, 92, 59, 55, 30, 85, 50, 80, 80, 7, 82, 28, 60, 33, 21, 66, 92, 59, 60, 65, 68, 89, 85, 76, 89, 89, 69, 36
              |71, 21, 73, 35, 73, 56, 60, 85, 72, 64, 75, 17, 57, 23, 79, 62, 17, 51, 36, 50, 26, 57, 11, 29, 25, 65, 61, 76, 53, 69, 69, 17, 51, 42, 80, 46, 58, 94, 61, 65, 41, 59, 48, 80, 13, 44, 40, 75, 66, 25, 20, 71, 69, 46, 13, 94, 36, 48, 30, 22, 64, 23, 5, 56, 23, 54, 75, 41, 71, 35, 41, 74, 21, 96, 8, 70, 35, 40, 67, 52, 8, 86, 44, 30, 50, 35, 52, 79, 6, 91, 73, 95, 63, 75, 87, 36, 66, 19, 58, 66, 78, 68, 27, 35, 99, 57, 51, 80, 68, 30, 74, 74, 20, 14, 33, 45, 54, 29, 49, 72, 51, 49, 28, 74, 25, 18, 39, 39, 51, 16, 19, 13, 58, 47, 21, 38, 36, 4, 9, 17, 25, 35, 78, 64, 68, 68, 42, 78, 40, 78, 23, 45, 25, 77, 55, 50, 45, 52, 82, 78, 20, 38, 50, 23, 28, 31, 89, 52, 75, 81, 57, 63, 43, 67, 44, 70, 66, 43, 86, 20, 23, 55, 71, 56, 17, 39, 76, 88, 50, 82, 84, 30, 48, 75, 23, 27, 31, 44, 81, 61
              |72, 63, 41, 66, 33, 36, 13, 19, 74, 10, 63, 61, 41, 89, 24, 13, 82, 23, 60, 62, 76, 26, 79, 98, 60, 22, 15, 34, 47, 61, 24, 82, 26, 67, 25, 64, 17, 26, 71, 19, 57, 53, 24, 25, 57, 25, 53, 15, 46, 89, 83, 24, 36, 57, 58, 25, 69, 27, 42, 86, 49, 52, 72, 32, 58, 57, 77, 41, 27, 41, 61, 39, 60, 27, 63, 35, 39, 68, 58, 75, 76, 22, 31, 47, 21, 48, 33, 77, 66, 25, 21, 27, 9, 65, 23, 48, 54, 85, 36, 70, 20, 22, 73, 51, 30, 36, 59, 13, 66, 98, 47, 70, 63, 60, 46, 64, 75, 77, 49, 44, 36, 28, 67, 51, 88, 86, 41, 36, 70, 64, 59, 73, 19, 69, 59, 46, 62, 64, 67, 65, 46, 104, 78, 17, 38, 16, 44, 29, 42, 23, 90, 24, 85, 15, 44, 42, 29, 17, 24, 31, 60, 58, 61, 46, 59, 40, 22, 64, 49, 15, 22, 10, 26, 63, 37, 16, 70, 68, 18, 88, 91, 40, 47, 66, 56, 31, 30, 26, 74, 19, 20, 53, 44, 54, 90, 68, 100, 73, 29, 8
              |79, 71, 46, 76, 38, 40, 20, 11, 77, 18, 69, 70, 48, 97, 21, 21, 91, 32, 69, 67, 84, 31, 88, 107, 68, 25, 23, 38, 52, 63, 28, 91, 33, 76, 25, 73, 23, 16, 79, 22, 66, 60, 32, 21, 66, 34, 59, 13, 48, 97, 92, 24, 41, 63, 68, 16, 76, 36, 51, 95, 56, 61, 81, 40, 66, 65, 79, 50, 31, 49, 67, 43, 70, 19, 72, 36, 49, 77, 61, 81, 86, 18, 38, 56, 29, 57, 39, 80, 75, 17, 21, 18, 17, 67, 15, 57, 60, 94, 43, 78, 16, 24, 83, 58, 21, 43, 64, 9, 73, 107, 48, 73, 72, 68, 54, 70, 81, 85, 57, 49, 44, 35, 76, 52, 96, 95, 50, 44, 76, 73, 67, 82, 27, 75, 68, 53, 71, 74, 76, 73, 55, 113, 81, 24, 39, 18, 51, 31, 49, 20, 99, 33, 93, 11, 48, 50, 39, 26, 20, 34, 69, 67, 66, 55, 67, 49, 15, 69, 50, 12, 30, 17, 35, 66, 44, 17, 78, 74, 9, 97, 100, 48, 48, 74, 65, 40, 34, 19, 80, 13, 13, 61, 50, 55, 99, 76, 109, 79, 25, 17
              |82, 27, 65, 58, 60, 15, 26, 49, 45, 39, 79, 27, 54, 56, 40, 39, 49, 35, 54, 27, 39, 17, 51, 69, 23, 25, 39, 62, 17, 36, 52, 49, 13, 63, 59, 63, 22, 60, 77, 27, 55, 64, 14, 40, 33, 23, 15, 39, 27, 54, 49, 31, 59, 21, 37, 61, 31, 35, 31, 62, 64, 38, 46, 48, 22, 63, 48, 42, 55, 6, 23, 64, 45, 65, 39, 29, 34, 62, 33, 38, 47, 60, 7, 38, 18, 44, 11, 51, 41, 54, 34, 63, 38, 42, 50, 44, 68, 53, 52, 79, 40, 29, 58, 13, 66, 50, 25, 51, 77, 66, 34, 44, 47, 28, 9, 27, 39, 39, 54, 66, 47, 10, 54, 36, 53, 56, 40, 4, 34, 45, 24, 50, 39, 32, 44, 8, 56, 36, 35, 31, 17, 74, 51, 45, 27, 31, 8, 61, 4, 39, 57, 17, 50, 40, 17, 50, 34, 26, 43, 62, 44, 54, 26, 19, 22, 28, 60, 29, 36, 53, 41, 29, 24, 35, 3, 32, 79, 30, 55, 57, 62, 52, 32, 70, 24, 25, 60, 49, 37, 46, 48, 16, 11, 37, 58, 31, 70, 35, 41, 33
              |96, 15, 85, 65, 81, 31, 48, 70, 36, 61, 95, 19, 71, 42, 59, 61, 37, 55, 64, 13, 21, 37, 44, 59, 12, 45, 61, 83, 22, 34, 73, 37, 35, 72, 81, 74, 44, 81, 89, 47, 66, 79, 36, 59, 36, 43, 9, 59, 35, 39, 34, 50, 79, 10, 40, 82, 9, 55, 44, 58, 81, 46, 41, 67, 14, 77, 39, 57, 76, 21, 4, 84, 50, 87, 39, 44, 49, 70, 32, 19, 39, 82, 29, 50, 40, 56, 30, 43, 40, 74, 54, 85, 60, 39, 71, 57, 85, 41, 71, 92, 60, 49, 61, 10, 87, 69, 15, 74, 92, 53, 42, 38, 51, 23, 16, 9, 20, 20, 69, 85, 64, 32, 60, 42, 37, 45, 55, 25, 16, 48, 18, 49, 60, 13, 50, 14, 64, 33, 27, 20, 25, 61, 42, 66, 40, 51, 17, 82, 18, 58, 44, 39, 33, 61, 26, 67, 52, 48, 62, 83, 49, 64, 14, 27, 9, 42, 82, 16, 44, 75, 62, 51, 44, 31, 23, 53, 92, 9, 77, 46, 52, 69, 40, 82, 22, 43, 81, 69, 17, 66, 68, 10, 20, 42, 45, 13, 58, 13, 59, 55
              |114, 31, 102, 83, 98, 41, 62, 81, 25, 77, 114, 35, 90, 49, 69, 78, 46, 72, 81, 14, 28, 50, 57, 69, 28, 57, 78, 100, 29, 31, 90, 46, 49, 89, 97, 91, 58, 93, 107, 59, 84, 98, 52, 69, 53, 61, 23, 71, 40, 45, 42, 60, 97, 18, 57, 95, 15, 72, 63, 71, 100, 64, 55, 85, 31, 95, 27, 75, 94, 39, 16, 102, 67, 100, 56, 51, 67, 88, 30, 1, 52, 97, 45, 68, 56, 74, 42, 32, 56, 85, 64, 98, 76, 34, 82, 75, 103, 50, 89, 110, 71, 59, 77, 28, 99, 87, 17, 88, 110, 60, 45, 29, 68, 40, 34, 11, 3, 25, 87, 103, 82, 47, 77, 43, 43, 55, 73, 42, 5, 65, 35, 64, 77, 6, 67, 31, 82, 49, 42, 35, 43, 68, 30, 83, 47, 64, 31, 99, 34, 68, 51, 56, 39, 73, 34, 85, 70, 65, 72, 100, 66, 82, 15, 45, 26, 60, 96, 13, 46, 90, 79, 65, 61, 27, 38, 65, 110, 9, 90, 55, 62, 88, 43, 100, 39, 61, 98, 79, 1, 77, 80, 29, 31, 42, 52, 24, 66, 7, 68, 71
              |95, 48, 69, 77, 63, 8, 20, 33, 43, 38, 88, 49, 63, 77, 20, 40, 71, 42, 72, 35, 59, 9, 74, 92, 44, 9, 41, 64, 19, 29, 53, 71, 14, 80, 56, 79, 17, 45, 91, 12, 71, 75, 21, 21, 55, 34, 30, 23, 14, 76, 70, 12, 64, 32, 58, 47, 48, 44, 49, 85, 74, 57, 68, 56, 44, 76, 45, 56, 57, 28, 37, 67, 65, 52, 61, 7, 50, 80, 27, 48, 69, 52, 20, 56, 22, 60, 12, 46, 64, 36, 16, 49, 37, 34, 33, 60, 78, 75, 60, 92, 22, 11, 79, 32, 51, 59, 32, 43, 89, 88, 17, 39, 67, 50, 31, 39, 48, 59, 68, 71, 57, 16, 74, 21, 74, 78, 54, 25, 43, 66, 47, 72, 43, 43, 64, 27, 73, 59, 58, 52, 39, 96, 47, 46, 7, 16, 23, 60, 24, 20, 79, 27, 70, 25, 15, 62, 45, 31, 24, 62, 64, 71, 34, 41, 42, 46, 49, 36, 19, 45, 46, 22, 35, 32, 20, 17, 92, 43, 43, 79, 85, 62, 16, 85, 47, 39, 61, 30, 48, 29, 31, 37, 19, 23, 80, 50, 92, 48, 20, 31
              |84, 1, 78, 52, 76, 39, 50, 75, 52, 60, 85, 4, 63, 30, 66, 59, 24, 50, 51, 29, 14, 43, 29, 45, 4, 52, 58, 78, 34, 49, 70, 24, 39, 58, 79, 61, 47, 85, 76, 53, 54, 69, 38, 67, 22, 40, 20, 65, 48, 28, 23, 57, 73, 25, 26, 86, 16, 49, 35, 42, 73, 34, 26, 60, 4, 66, 54, 48, 72, 21, 20, 78, 36, 89, 24, 54, 40, 57, 47, 32, 24, 82, 32, 39, 41, 45, 36, 59, 25, 80, 60, 88, 59, 54, 76, 46, 76, 28, 63, 80, 66, 55, 46, 16, 91, 61, 30, 75, 80, 41, 55, 53, 37, 8, 17, 24, 34, 16, 59, 78, 57, 36, 45, 55, 27, 31, 45, 26, 30, 33, 4, 33, 57, 27, 36, 21, 51, 18, 12, 5, 17, 48, 57, 63, 51, 57, 25, 79, 24, 65, 31, 38, 23, 66, 37, 58, 46, 46, 69, 79, 35, 52, 30, 18, 7, 33, 84, 31, 57, 76, 57, 54, 40, 46, 28, 58, 80, 22, 79, 32, 38, 61, 53, 70, 9, 37, 77, 76, 30, 72, 74, 11, 30, 56, 32, 9, 45, 25, 67, 55
              |70, 37, 81, 34, 83, 73, 76, 100, 88, 77, 77, 34, 64, 22, 95, 75, 21, 64, 39, 66, 38, 74, 9, 16, 41, 82, 74, 85, 70, 86, 80, 21, 68, 41, 92, 46, 74, 109, 60, 82, 44, 63, 64, 96, 27, 58, 57, 91, 84, 27, 25, 88, 78, 62, 25, 109, 50, 60, 42, 5, 69, 33, 12, 66, 40, 57, 90, 50, 82, 52, 57, 82, 26, 110, 20, 87, 46, 38, 84, 66, 14, 99, 61, 40, 66, 42, 69, 95, 17, 107, 89, 110, 77, 91, 103, 43, 70, 19, 67, 66, 94, 85, 22, 52, 114, 65, 67, 94, 69, 22, 91, 90, 24, 31, 50, 60, 68, 41, 54, 79, 60, 66, 27, 91, 28, 14, 49, 56, 66, 21, 36, 11, 70, 62, 27, 55, 37, 22, 25, 32, 41, 24, 94, 77, 85, 85, 60, 89, 57, 94, 21, 61, 30, 92, 73, 58, 57, 66, 98, 88, 26, 41, 67, 40, 44, 44, 103, 68, 93, 94, 69, 78, 58, 83, 61, 86, 66, 58, 101, 16, 12, 62, 89, 56, 34, 52, 86, 104, 64, 98, 100, 47, 65, 92, 21, 41, 20, 59, 98, 75
              |77, 72, 43, 74, 35, 42, 21, 14, 79, 17, 66, 70, 46, 98, 23, 20, 91, 30, 67, 69, 85, 33, 88, 107, 69, 27, 22, 35, 54, 66, 26, 91, 34, 74, 23, 71, 25, 17, 77, 24, 64, 58, 33, 24, 66, 34, 61, 15, 50, 98, 92, 27, 39, 65, 67, 16, 77, 35, 50, 95, 54, 61, 81, 38, 67, 63, 82, 49, 29, 50, 69, 40, 69, 18, 72, 38, 48, 76, 63, 82, 86, 16, 40, 55, 30, 56, 40, 82, 75, 19, 23, 18, 16, 70, 18, 56, 58, 95, 41, 75, 19, 26, 82, 59, 21, 41, 66, 7, 71, 107, 51, 75, 71, 69, 55, 72, 82, 85, 55, 46, 42, 36, 75, 55, 97, 96, 48, 45, 77, 73, 68, 82, 26, 77, 68, 54, 70, 74, 76, 74, 55, 113, 83, 22, 42, 20, 52, 28, 50, 23, 99, 33, 94, 14, 50, 48, 38, 26, 23, 31, 68, 66, 68, 56, 68, 49, 13, 71, 52, 9, 28, 18, 35, 68, 46, 20, 75, 76, 9, 97, 100, 46, 51, 72, 65, 40, 31, 22, 82, 15, 15, 62, 51, 58, 100, 77, 109, 81, 28, 17
              |70, 27, 76, 34, 76, 62, 65, 90, 78, 68, 75, 23, 59, 21, 85, 66, 17, 55, 36, 55, 30, 63, 6, 24, 30, 71, 65, 79, 59, 75, 73, 17, 57, 41, 84, 45, 63, 99, 60, 71, 41, 60, 53, 85, 17, 49, 46, 81, 72, 25, 21, 77, 72, 51, 16, 99, 41, 52, 34, 16, 65, 26, 1, 59, 29, 54, 80, 43, 75, 41, 46, 77, 21, 100, 11, 76, 38, 38, 73, 57, 6, 91, 50, 33, 55, 37, 58, 85, 8, 96, 79, 100, 68, 81, 93, 38, 67, 17, 61, 66, 83, 74, 24, 41, 104, 59, 57, 85, 68, 26, 80, 80, 20, 20, 39, 50, 59, 33, 50, 74, 54, 55, 26, 80, 25, 15, 42, 45, 56, 16, 25, 9, 62, 53, 22, 44, 36, 10, 15, 22, 30, 31, 84, 69, 74, 74, 48, 82, 46, 84, 21, 51, 25, 82, 61, 52, 49, 57, 88, 81, 21, 38, 56, 29, 33, 35, 94, 58, 81, 85, 61, 68, 48, 73, 50, 75, 66, 48, 91, 16, 18, 57, 78, 55, 23, 43, 79, 93, 55, 88, 90, 36, 54, 81, 21, 32, 26, 49, 87, 66
              |68, 56, 39, 60, 32, 33, 11, 26, 72, 7, 60, 55, 36, 82, 28, 9, 75, 16, 53, 58, 70, 24, 72, 91, 54, 23, 11, 33, 44, 59, 22, 75, 22, 60, 26, 58, 14, 33, 66, 20, 50, 48, 19, 29, 50, 18, 48, 20, 45, 82, 76, 26, 33, 53, 51, 33, 64, 20, 34, 79, 45, 45, 65, 28, 52, 52, 75, 34, 26, 35, 56, 37, 53, 34, 56, 35, 32, 62, 57, 71, 69, 27, 26, 40, 15, 41, 30, 76, 59, 32, 24, 34, 6, 64, 30, 41, 50, 79, 31, 66, 24, 24, 66, 46, 38, 31, 56, 19, 62, 91, 48, 69, 55, 53, 40, 60, 71, 71, 43, 41, 30, 24, 60, 51, 81, 79, 34, 31, 66, 57, 52, 66, 14, 65, 52, 41, 55, 57, 60, 59, 39, 97, 77, 15, 38, 18, 40, 29, 37, 27, 83, 17, 78, 20, 41, 36, 23, 10, 29, 31, 52, 52, 57, 40, 53, 32, 28, 61, 50, 20, 17, 9, 18, 61, 33, 19, 66, 63, 25, 81, 84, 35, 47, 61, 50, 24, 30, 32, 70, 25, 26, 48, 40, 54, 84, 62, 93, 68, 33, 1
              |89, 15, 77, 60, 73, 26, 40, 63, 40, 53, 88, 17, 64, 44, 53, 53, 38, 47, 57, 18, 25, 31, 43, 60, 11, 39, 53, 75, 19, 36, 65, 38, 28, 66, 73, 67, 37, 75, 82, 41, 59, 72, 29, 54, 31, 35, 6, 53, 33, 42, 37, 45, 71, 13, 35, 76, 16, 47, 37, 56, 74, 40, 39, 59, 11, 70, 43, 49, 68, 13, 10, 76, 45, 79, 35, 40, 41, 65, 33, 26, 38, 75, 22, 43, 33, 49, 23, 47, 37, 68, 48, 78, 52, 41, 65, 50, 77, 42, 63, 85, 54, 43, 57, 2, 80, 61, 18, 66, 84, 55, 41, 41, 46, 20, 8, 15, 27, 25, 62, 77, 56, 25, 55, 41, 40, 46, 47, 17, 22, 43, 15, 46, 52, 20, 44, 7, 58, 30, 26, 20, 18, 63, 46, 58, 37, 45, 11, 74, 11, 52, 46, 31, 36, 55, 22, 59, 44, 40, 57, 75, 44, 58, 18, 20, 8, 35, 75, 21, 42, 68, 54, 44, 36, 33, 16, 46, 85, 17, 70, 46, 53, 62, 38, 76, 17, 35, 73, 63, 25, 60, 62, 4, 16, 41, 47, 16, 59, 21, 54, 48
              |41, 64, 16, 43, 14, 56, 37, 49, 94, 21, 33, 61, 10, 82, 54, 18, 76, 15, 36, 76, 77, 48, 69, 85, 63, 49, 16, 16, 65, 83, 13, 76, 44, 41, 24, 37, 39, 51, 41, 46, 31, 22, 38, 55, 48, 26, 64, 46, 69, 84, 79, 53, 10, 70, 47, 50, 76, 15, 30, 70, 18, 37, 61, 4, 60, 27, 97, 20, 13, 48, 71, 15, 44, 47, 52, 61, 25, 43, 80, 87, 68, 34, 44, 30, 35, 27, 51, 99, 55, 55, 51, 49, 22, 88, 53, 26, 23, 78, 5, 39, 51, 50, 53, 59, 54, 5, 74, 33, 35, 89, 73, 92, 45, 57, 53, 76, 88, 79, 21, 16, 9, 44, 46, 76, 84, 77, 21, 46, 83, 48, 59, 59, 13, 81, 42, 57, 38, 57, 63, 64, 46, 93, 99, 14, 63, 45, 57, 20, 53, 53, 83, 33, 82, 46, 63, 14, 17, 25, 55, 19, 43, 34, 76, 45, 64, 30, 41, 79, 75, 32, 10, 36, 26, 83, 51, 46, 39, 78, 41, 79, 80, 10, 72, 36, 55, 26, 17, 57, 86, 50, 50, 59, 60, 79, 83, 71, 89, 82, 59, 26
              |66, 19, 61, 35, 60, 41, 43, 68, 65, 47, 67, 16, 45, 38, 62, 46, 31, 35, 33, 42, 31, 41, 28, 46, 20, 48, 45, 62, 41, 59, 54, 31, 35, 41, 65, 43, 41, 77, 58, 49, 36, 51, 31, 63, 7, 27, 30, 59, 53, 39, 33, 55, 56, 37, 11, 77, 34, 33, 17, 37, 54, 16, 21, 43, 17, 47, 68, 29, 57, 20, 34, 61, 20, 79, 13, 55, 22, 40, 57, 49, 25, 70, 28, 21, 33, 26, 36, 72, 16, 74, 56, 79, 47, 65, 70, 27, 57, 34, 46, 62, 61, 52, 33, 25, 82, 44, 43, 64, 62, 46, 60, 65, 22, 11, 20, 39, 50, 34, 40, 60, 39, 33, 30, 61, 38, 35, 27, 23, 46, 19, 14, 25, 42, 43, 20, 26, 34, 13, 17, 18, 9, 52, 71, 49, 53, 51, 30, 64, 26, 61, 39, 28, 36, 60, 42, 40, 30, 35, 65, 64, 19, 34, 43, 7, 22, 16, 73, 45, 62, 64, 42, 46, 27, 57, 29, 53, 62, 39, 69, 36, 40, 43, 58, 52, 10, 22, 62, 71, 47, 65, 67, 21, 36, 63, 39, 27, 48, 42, 65, 44
              |71, 18, 61, 42, 59, 33, 37, 62, 58, 43, 70, 16, 47, 42, 55, 42, 36, 33, 39, 36, 31, 33, 34, 53, 17, 41, 42, 61, 33, 52, 53, 36, 28, 47, 62, 49, 34, 72, 64, 42, 41, 54, 24, 56, 15, 23, 24, 52, 45, 42, 36, 47, 56, 31, 19, 72, 31, 32, 19, 45, 57, 22, 28, 43, 14, 52, 61, 32, 55, 12, 28, 61, 28, 74, 21, 47, 24, 47, 49, 44, 31, 66, 21, 25, 27, 31, 28, 65, 24, 67, 49, 73, 43, 57, 64, 31, 60, 39, 47, 67, 54, 45, 41, 18, 77, 45, 36, 59, 66, 52, 52, 58, 29, 13, 12, 33, 45, 33, 44, 61, 40, 25, 37, 53, 41, 40, 30, 16, 41, 27, 13, 32, 40, 38, 27, 18, 40, 19, 21, 19, 1, 58, 64, 46, 45, 45, 22, 62, 18, 54, 43, 23, 38, 53, 34, 42, 29, 30, 58, 62, 27, 40, 36, 1, 18, 17, 68, 39, 54, 60, 40, 40, 23, 50, 21, 46, 67, 34, 64, 42, 46, 45, 50, 57, 10, 20, 60, 64, 42, 59, 61, 15, 28, 55, 44, 25, 54, 38, 57, 39
              |42, 61, 18, 41, 16, 54, 35, 49, 92, 20, 34, 58, 10, 79, 53, 17, 73, 13, 34, 73, 74, 46, 66, 82, 60, 47, 15, 19, 63, 80, 14, 73, 42, 39, 25, 36, 37, 52, 41, 45, 30, 23, 36, 54, 45, 24, 61, 45, 67, 81, 76, 51, 13, 68, 44, 50, 73, 12, 27, 68, 20, 34, 59, 2, 57, 27, 94, 17, 15, 46, 68, 18, 41, 48, 49, 60, 22, 42, 77, 84, 65, 35, 41, 27, 33, 25, 49, 96, 52, 55, 50, 50, 21, 86, 53, 24, 24, 76, 6, 40, 50, 49, 51, 57, 54, 5, 72, 34, 36, 86, 71, 89, 43, 54, 50, 73, 85, 76, 20, 19, 7, 42, 44, 74, 81, 74, 18, 43, 80, 46, 56, 56, 12, 78, 40, 54, 36, 54, 60, 61, 43, 90, 97, 14, 61, 44, 55, 22, 51, 52, 80, 30, 79, 45, 61, 13, 14, 23, 55, 21, 40, 32, 73, 42, 61, 27, 42, 76, 73, 33, 9, 34, 23, 81, 48, 44, 40, 75, 42, 76, 77, 10, 70, 36, 52, 24, 19, 56, 83, 49, 50, 56, 57, 77, 80, 68, 86, 80, 58, 25
              |67, 26, 72, 31, 73, 59, 62, 87, 77, 65, 72, 22, 55, 24, 81, 63, 19, 52, 34, 54, 30, 60, 9, 28, 29, 68, 61, 75, 57, 74, 69, 19, 54, 39, 80, 43, 60, 96, 58, 68, 38, 57, 50, 82, 13, 45, 44, 78, 70, 27, 23, 74, 68, 50, 13, 96, 40, 49, 31, 18, 62, 22, 2, 56, 27, 51, 79, 40, 71, 38, 45, 73, 18, 97, 7, 73, 35, 36, 71, 56, 9, 87, 47, 29, 52, 34, 55, 84, 4, 93, 76, 97, 64, 79, 90, 35, 64, 20, 58, 63, 80, 71, 23, 39, 100, 56, 55, 81, 65, 30, 77, 78, 17, 18, 36, 49, 58, 33, 47, 70, 51, 52, 24, 78, 27, 18, 38, 42, 55, 13, 23, 8, 58, 52, 19, 42, 33, 8, 14, 21, 28, 34, 83, 65, 71, 71, 46, 78, 43, 80, 24, 47, 28, 79, 59, 49, 45, 53, 85, 78, 18, 35, 55, 26, 32, 31, 91, 57, 79, 82, 57, 65, 45, 71, 47, 72, 63, 47, 88, 20, 21, 53, 75, 53, 21, 40, 76, 90, 54, 85, 87, 34, 52, 79, 24, 31, 30, 49, 84, 62
              |44, 54, 25, 37, 24, 50, 33, 50, 86, 21, 38, 51, 13, 72, 53, 18, 66, 9, 30, 68, 67, 42, 59, 76, 53, 45, 16, 26, 58, 76, 20, 66, 38, 36, 31, 33, 34, 55, 41, 43, 26, 24, 31, 54, 38, 18, 55, 45, 63, 74, 69, 50, 20, 62, 37, 53, 66, 6, 20, 62, 23, 28, 52, 7, 50, 27, 89, 11, 21, 39, 62, 25, 35, 52, 43, 57, 15, 38, 73, 78, 58, 40, 36, 21, 29, 19, 45, 92, 45, 56, 49, 54, 22, 81, 54, 19, 28, 69, 11, 41, 49, 47, 46, 50, 58, 9, 66, 37, 38, 79, 68, 84, 37, 47, 44, 67, 79, 69, 18, 25, 6, 37, 39, 71, 74, 68, 12, 37, 74, 39, 49, 50, 12, 72, 33, 48, 32, 47, 53, 54, 36, 84, 92, 17, 58, 42, 49, 29, 45, 52, 73, 25, 72, 45, 56, 11, 8, 20, 54, 28, 34, 28, 67, 35, 54, 20, 46, 70, 70, 36, 10, 33, 18, 76, 43, 43, 41, 69, 45, 69, 71, 11, 67, 36, 45, 17, 26, 57, 77, 50, 51, 50, 52, 73, 73, 61, 79, 73, 57, 24
              |80, 40, 58, 62, 52, 13, 12, 35, 51, 28, 75, 40, 50, 69, 27, 29, 62, 28, 57, 37, 53, 6, 63, 81, 37, 13, 30, 53, 23, 39, 43, 62, 1, 66, 48, 65, 8, 46, 76, 14, 56, 61, 6, 28, 42, 19, 28, 25, 26, 68, 62, 19, 52, 32, 45, 47, 45, 31, 34, 72, 60, 43, 56, 42, 35, 62, 54, 41, 46, 18, 36, 56, 51, 51, 49, 21, 35, 66, 37, 50, 59, 47, 8, 41, 8, 45, 9, 56, 51, 40, 21, 49, 27, 45, 37, 46, 65, 66, 47, 78, 26, 17, 65, 26, 52, 45, 34, 38, 75, 79, 31, 49, 53, 40, 23, 39, 50, 53, 53, 59, 43, 4, 60, 34, 67, 68, 40, 13, 45, 53, 37, 60, 31, 44, 50, 22, 59, 47, 48, 44, 27, 86, 56, 35, 22, 17, 19, 50, 17, 26, 70, 12, 63, 26, 20, 48, 31, 18, 30, 52, 50, 57, 36, 29, 36, 31, 46, 39, 33, 40, 34, 15, 20, 40, 13, 18, 78, 43, 41, 69, 74, 48, 30, 70, 36, 24, 51, 36, 49, 32, 34, 30, 19, 36, 71, 44, 82, 48, 29, 22
              |6, 80, 31, 34, 38, 87, 70, 84, 122, 56, 11, 76, 26, 88, 89, 53, 83, 47, 31, 101, 91, 80, 71, 82, 81, 82, 51, 40, 93, 112, 45, 83, 75, 27, 53, 22, 72, 85, 11, 80, 26, 13, 68, 90, 58, 55, 88, 81, 100, 91, 87, 87, 33, 95, 55, 83, 95, 44, 46, 66, 17, 46, 66, 34, 78, 14, 124, 35, 43, 73, 94, 34, 46, 79, 59, 94, 43, 30, 109, 110, 73, 65, 72, 41, 66, 35, 81, 127, 61, 90, 85, 82, 57, 118, 88, 34, 13, 84, 30, 5, 85, 84, 46, 83, 86, 31, 100, 67, 1, 90, 105, 120, 47, 72, 76, 99, 111, 94, 22, 27, 32, 74, 41, 108, 92, 80, 37, 72, 106, 51, 76, 59, 47, 103, 46, 81, 31, 66, 74, 78, 66, 91, 127, 49, 96, 79, 83, 48, 79, 88, 87, 62, 91, 81, 92, 27, 44, 58, 90, 45, 47, 29, 101, 64, 83, 49, 73, 104, 107, 65, 44, 70, 54, 112, 79, 80, 5, 100, 75, 82, 80, 26, 104, 12, 71, 52, 43, 92, 108, 85, 85, 80, 88, 111, 87, 88, 87, 103, 94, 60
              |124, 52, 104, 99, 98, 33, 55, 66, 9, 73, 120, 56, 95, 77, 52, 75, 73, 74, 96, 24, 55, 42, 81, 96, 49, 45, 76, 99, 25, 7, 88, 73, 45, 104, 92, 105, 52, 78, 119, 48, 97, 105, 51, 52, 71, 64, 34, 58, 22, 74, 70, 46, 98, 28, 75, 80, 41, 76, 73, 95, 105, 78, 78, 88, 50, 105, 10, 84, 92, 46, 33, 102, 84, 86, 75, 34, 76, 103, 9, 30, 76, 88, 46, 80, 54, 85, 38, 10, 77, 68, 50, 83, 72, 4, 65, 86, 110, 77, 92, 121, 55, 46, 97, 40, 84, 91, 22, 79, 119, 89, 23, 3, 86, 60, 45, 30, 28, 54, 96, 105, 88, 45, 94, 19, 72, 82, 82, 46, 27, 83, 54, 85, 77, 30, 84, 38, 97, 70, 65, 57, 56, 97, 11, 81, 31, 52, 36, 95, 40, 52, 79, 57, 68, 60, 26, 92, 75, 64, 55, 97, 83, 96, 23, 58, 46, 70, 84, 22, 22, 81, 80, 58, 64, 7, 40, 53, 121, 33, 78, 82, 89, 93, 22, 112, 57, 67, 96, 61, 31, 62, 64, 44, 31, 16, 80, 49, 94, 35, 49, 67
              |102, 35, 83, 77, 78, 15, 37, 55, 26, 54, 99, 37, 73, 63, 42, 55, 57, 53, 73, 13, 42, 24, 63, 80, 30, 30, 56, 79, 3, 17, 69, 57, 25, 82, 74, 83, 34, 67, 96, 33, 74, 83, 30, 42, 49, 42, 14, 45, 14, 60, 55, 34, 77, 11, 54, 68, 29, 54, 51, 76, 84, 56, 59, 67, 31, 83, 29, 62, 72, 24, 18, 82, 63, 74, 55, 25, 54, 81, 14, 27, 58, 72, 24, 58, 34, 63, 18, 31, 56, 58, 37, 71, 53, 22, 55, 64, 88, 61, 71, 99, 44, 33, 76, 19, 73, 69, 10, 63, 97, 74, 21, 24, 64, 40, 23, 18, 26, 41, 74, 84, 66, 24, 72, 21, 58, 66, 60, 24, 22, 62, 35, 65, 57, 22, 62, 17, 75, 50, 46, 39, 34, 82, 31, 61, 21, 37, 13, 77, 17, 41, 65, 36, 54, 47, 7, 70, 53, 43, 45, 78, 62, 74, 12, 36, 27, 48, 70, 15, 23, 65, 59, 40, 43, 16, 18, 38, 99, 23, 64, 66, 72, 72, 19, 90, 37, 45, 77, 52, 26, 51, 53, 24, 8, 21, 65, 34, 79, 27, 41, 48
              |89, 21, 74, 62, 70, 19, 35, 57, 38, 49, 87, 23, 62, 50, 47, 49, 44, 44, 59, 17, 31, 25, 49, 66, 17, 33, 49, 72, 14, 32, 62, 44, 22, 67, 69, 69, 31, 69, 83, 35, 60, 71, 24, 48, 34, 33, 5, 47, 27, 48, 43, 38, 69, 12, 39, 70, 22, 44, 37, 61, 73, 42, 44, 57, 17, 70, 41, 49, 65, 11, 13, 73, 48, 74, 39, 33, 41, 67, 29, 29, 44, 70, 17, 44, 28, 50, 17, 45, 41, 62, 41, 72, 48, 37, 59, 50, 77, 48, 61, 86, 47, 36, 60, 4, 75, 59, 16, 61, 84, 61, 35, 38, 49, 25, 8, 17, 29, 31, 62, 75, 55, 20, 57, 35, 47, 52, 47, 13, 24, 47, 20, 50, 49, 22, 47, 2, 60, 35, 32, 26, 19, 69, 44, 54, 30, 39, 4, 70, 6, 46, 52, 27, 43, 49, 16, 58, 42, 36, 50, 72, 47, 59, 17, 21, 14, 35, 69, 20, 36, 63, 51, 38, 33, 30, 10, 40, 86, 20, 64, 53, 59, 61, 33, 76, 22, 33, 70, 57, 27, 54, 56, 9, 9, 36, 53, 23, 66, 25, 47, 43
              |78, 66, 46, 73, 38, 36, 15, 13, 74, 16, 68, 65, 46, 93, 19, 19, 87, 29, 66, 63, 79, 27, 84, 103, 64, 21, 21, 38, 48, 60, 28, 87, 28, 73, 27, 70, 19, 21, 77, 18, 63, 59, 28, 20, 62, 30, 55, 11, 45, 93, 87, 21, 41, 59, 64, 21, 72, 33, 47, 92, 55, 58, 77, 38, 61, 63, 76, 47, 31, 44, 63, 43, 66, 24, 68, 33, 45, 75, 57, 77, 81, 22, 34, 53, 24, 54, 34, 76, 71, 19, 18, 22, 15, 64, 17, 54, 59, 90, 42, 76, 15, 20, 79, 53, 26, 41, 60, 12, 72, 103, 45, 69, 68, 64, 49, 66, 76, 80, 55, 49, 42, 31, 73, 49, 92, 91, 47, 39, 71, 69, 63, 78, 25, 71, 65, 49, 68, 69, 72, 69, 50, 109, 78, 23, 36, 15, 47, 32, 45, 18, 94, 28, 89, 9, 44, 48, 35, 22, 19, 35, 65, 64, 62, 51, 62, 45, 19, 65, 47, 15, 28, 12, 31, 62, 40, 14, 76, 70, 14, 93, 96, 46, 45, 72, 61, 36, 34, 20, 76, 13, 14, 56, 45, 52, 95, 71, 105, 75, 24, 14
              |75, 21, 62, 49, 58, 25, 31, 55, 52, 40, 73, 20, 49, 48, 48, 39, 42, 32, 45, 31, 34, 25, 42, 60, 19, 34, 39, 60, 26, 45, 51, 42, 20, 54, 60, 55, 28, 66, 69, 34, 46, 57, 18, 49, 23, 21, 19, 45, 37, 48, 42, 40, 56, 26, 27, 66, 30, 32, 23, 53, 59, 28, 36, 44, 16, 56, 55, 35, 54, 4, 25, 61, 35, 69, 29, 39, 27, 53, 42, 41, 38, 62, 13, 30, 21, 35, 20, 59, 32, 61, 42, 68, 39, 51, 57, 36, 63, 45, 48, 71, 47, 37, 49, 13, 71, 46, 30, 55, 70, 58, 44, 52, 37, 19, 7, 30, 42, 35, 48, 62, 42, 17, 45, 46, 46, 47, 33, 8, 37, 35, 17, 40, 38, 35, 34, 12, 47, 27, 27, 24, 7, 65, 58, 44, 37, 38, 15, 60, 11, 47, 50, 18, 43, 47, 27, 44, 29, 27, 51, 61, 34, 45, 31, 9, 18, 21, 64, 34, 46, 56, 39, 34, 21, 44, 13, 39, 71, 32, 59, 49, 53, 47, 42, 62, 16, 20, 59, 57, 40, 52, 54, 13, 20, 47, 50, 27, 61, 36, 50, 35
              |82, 43, 59, 65, 52, 12, 11, 32, 51, 28, 77, 43, 51, 72, 24, 30, 65, 30, 60, 38, 55, 4, 66, 84, 40, 10, 31, 54, 23, 39, 43, 65, 4, 68, 48, 67, 7, 44, 79, 11, 59, 63, 9, 25, 45, 22, 29, 22, 25, 71, 65, 16, 53, 33, 49, 45, 47, 32, 37, 76, 62, 46, 60, 44, 38, 64, 54, 44, 47, 21, 37, 57, 54, 49, 52, 19, 38, 69, 36, 51, 62, 46, 11, 44, 10, 48, 9, 55, 54, 38, 18, 47, 27, 44, 34, 48, 66, 69, 48, 80, 23, 13, 68, 29, 50, 47, 35, 37, 77, 82, 29, 48, 56, 43, 25, 41, 51, 56, 55, 60, 45, 6, 63, 32, 69, 71, 42, 16, 46, 56, 40, 63, 32, 45, 53, 24, 62, 51, 51, 47, 30, 89, 56, 35, 19, 14, 21, 50, 20, 23, 73, 15, 66, 24, 20, 50, 33, 19, 27, 52, 53, 59, 37, 32, 38, 34, 45, 40, 31, 39, 35, 14, 22, 40, 15, 16, 80, 44, 39, 72, 77, 50, 28, 73, 39, 27, 51, 33, 50, 29, 31, 32, 20, 35, 74, 47, 85, 49, 26, 22
              |98, 14, 89, 66, 86, 36, 53, 76, 38, 66, 98, 19, 75, 38, 65, 66, 33, 59, 65, 16, 16, 43, 42, 56, 12, 51, 66, 87, 27, 38, 78, 33, 40, 73, 86, 75, 50, 87, 91, 53, 68, 82, 42, 65, 37, 48, 14, 65, 40, 34, 30, 56, 83, 15, 41, 88, 3, 59, 47, 56, 85, 48, 40, 71, 15, 79, 40, 60, 81, 26, 8, 88, 51, 92, 39, 49, 52, 71, 36, 17, 37, 88, 35, 52, 46, 58, 35, 45, 40, 80, 59, 91, 65, 42, 77, 59, 88, 37, 74, 94, 66, 54, 61, 15, 93, 73, 19, 79, 94, 49, 48, 40, 52, 23, 21, 10, 19, 15, 72, 89, 68, 38, 60, 47, 33, 42, 58, 30, 15, 48, 18, 48, 65, 12, 51, 20, 66, 33, 26, 19, 28, 57, 43, 71, 46, 57, 22, 87, 24, 64, 40, 44, 28, 67, 31, 70, 56, 53, 68, 88, 50, 66, 17, 30, 10, 45, 88, 18, 49, 81, 66, 57, 48, 34, 29, 59, 94, 8, 83, 42, 49, 73, 45, 84, 23, 47, 86, 75, 15, 72, 74, 14, 26, 46, 41, 9, 54, 10, 65, 61
              |77, 13, 76, 42, 76, 50, 57, 82, 65, 63, 80, 10, 60, 22, 75, 62, 15, 52, 43, 42, 19, 52, 16, 34, 17, 61, 61, 78, 46, 62, 71, 15, 47, 49, 81, 52, 55, 92, 68, 62, 46, 64, 45, 76, 15, 43, 33, 72, 60, 22, 17, 67, 72, 38, 18, 92, 28, 49, 32, 29, 68, 27, 13, 59, 16, 59, 67, 44, 73, 30, 33, 77, 27, 94, 14, 65, 37, 47, 60, 44, 11, 86, 40, 34, 47, 39, 47, 72, 13, 88, 69, 94, 63, 67, 84, 40, 71, 18, 61, 73, 74, 64, 35, 28, 97, 59, 43, 79, 74, 31, 67, 66, 27, 8, 27, 37, 46, 22, 54, 75, 54, 45, 35, 68, 22, 20, 42, 35, 43, 23, 12, 21, 58, 39, 27, 32, 42, 7, 1, 9, 21, 38, 70, 65, 62, 65, 36, 80, 34, 74, 23, 43, 20, 74, 49, 54, 46, 50, 78, 80, 26, 44, 43, 21, 20, 32, 88, 44, 69, 80, 58, 60, 43, 59, 38, 66, 73, 35, 85, 21, 26, 58, 65, 62, 12, 38, 78, 84, 42, 79, 81, 23, 42, 68, 23, 19, 34, 36, 77, 60
              |84, 31, 91, 47, 92, 71, 78, 103, 79, 82, 90, 30, 74, 8, 96, 81, 9, 70, 51, 58, 27, 73, 10, 14, 35, 82, 80, 94, 66, 79, 88, 9, 68, 55, 99, 59, 75, 112, 74, 82, 56, 75, 65, 97, 31, 63, 52, 93, 79, 13, 13, 88, 87, 56, 31, 112, 41, 67, 49, 19, 81, 41, 17, 75, 35, 69, 81, 59, 90, 51, 49, 92, 36, 114, 26, 85, 54, 52, 78, 56, 11, 105, 61, 48, 68, 52, 67, 86, 23, 109, 90, 114, 82, 84, 105, 53, 82, 5, 77, 80, 95, 85, 36, 48, 117, 75, 60, 99, 82, 11, 87, 82, 35, 29, 47, 52, 58, 30, 66, 89, 70, 65, 40, 87, 14, 1, 57, 55, 56, 31, 32, 22, 77, 53, 37, 52, 50, 23, 21, 27, 42, 17, 84, 83, 82, 86, 56, 97, 55, 95, 7, 64, 17, 94, 69, 68, 64, 70, 99, 97, 36, 53, 59, 41, 38, 50, 108, 60, 88, 99, 76, 81, 62, 76, 59, 87, 80, 49, 105, 1, 7, 72, 84, 69, 32, 57, 95, 105, 54, 100, 102, 43, 62, 87, 6, 33, 13, 49, 97, 80
              |72, 86, 36, 79, 28, 60, 38, 28, 98, 26, 60, 85, 46, 111, 41, 27, 104, 38, 72, 87, 100, 51, 99, 117, 84, 46, 29, 27, 72, 84, 24, 104, 51, 77, 13, 73, 42, 21, 75, 43, 67, 56, 49, 41, 77, 46, 78, 33, 69, 111, 106, 45, 34, 82, 78, 19, 94, 42, 60, 104, 50, 69, 92, 39, 82, 63, 100, 54, 24, 65, 86, 33, 77, 13, 83, 57, 56, 79, 82, 100, 97, 3, 56, 63, 45, 62, 58, 100, 86, 30, 41, 17, 26, 88, 31, 61, 54, 107, 41, 72, 37, 44, 88, 76, 20, 42, 84, 12, 66, 119, 69, 94, 79, 82, 70, 89, 100, 101, 57, 40, 45, 53, 81, 73, 110, 107, 55, 61, 95, 81, 82, 91, 32, 94, 76, 71, 74, 85, 89, 88, 69, 124, 102, 25, 60, 39, 69, 19, 67, 40, 112, 47, 108, 31, 68, 50, 45, 39, 39, 22, 76, 70, 86, 69, 83, 59, 9, 89, 71, 10, 33, 35, 47, 86, 63, 38, 72, 93, 14, 109, 111, 47, 69, 71, 79, 51, 23, 36, 99, 31, 30, 78, 69, 76, 112, 92, 120, 98, 45, 30
              |109, 26, 98, 78, 95, 40, 60, 80, 29, 74, 109, 30, 85, 45, 68, 74, 41, 68, 77, 13, 23, 48, 52, 64, 23, 55, 74, 97, 28, 33, 87, 41, 46, 84, 94, 87, 56, 92, 102, 58, 79, 93, 49, 68, 48, 57, 20, 70, 40, 41, 38, 59, 93, 16, 52, 93, 10, 68, 58, 66, 95, 59, 51, 81, 26, 90, 31, 71, 90, 35, 12, 98, 62, 98, 51, 51, 63, 83, 32, 6, 47, 94, 42, 64, 53, 69, 40, 36, 51, 84, 63, 96, 73, 36, 80, 70, 99, 45, 84, 105, 69, 58, 72, 24, 98, 83, 16, 86, 105, 56, 46, 33, 63, 35, 30, 8, 8, 21, 83, 99, 78, 44, 72, 44, 39, 51, 68, 38, 6, 60, 30, 59, 74, 4, 62, 27, 77, 44, 37, 30, 38, 64, 34, 79, 47, 62, 28, 95, 31, 67, 47, 52, 35, 71, 33, 81, 66, 61, 71, 97, 62, 77, 14, 40, 21, 56, 94, 13, 47, 87, 75, 63, 57, 29, 35, 63, 105, 5, 88, 50, 58, 83, 44, 96, 34, 57, 95, 78, 4, 76, 78, 24, 29, 43, 48, 19, 62, 2, 67, 68
              |56, 45, 70, 21, 73, 75, 73, 97, 96, 71, 64, 41, 54, 37, 94, 69, 34, 57, 26, 73, 49, 74, 21, 28, 48, 81, 67, 75, 75, 92, 72, 34, 68, 27, 83, 32, 72, 104, 46, 81, 32, 51, 63, 95, 27, 55, 63, 89, 87, 41, 39, 87, 68, 69, 23, 104, 60, 54, 37, 12, 57, 27, 19, 57, 46, 44, 98, 41, 73, 54, 64, 72, 18, 104, 21, 88, 40, 24, 90, 76, 25, 92, 62, 32, 64, 33, 70, 103, 20, 103, 88, 105, 72, 98, 100, 34, 58, 33, 57, 52, 92, 84, 8, 57, 108, 56, 74, 88, 55, 36, 94, 97, 16, 37, 53, 68, 77, 52, 43, 68, 51, 66, 15, 95, 42, 28, 40, 57, 74, 16, 42, 11, 63, 71, 20, 59, 25, 27, 33, 40, 43, 37, 102, 70, 87, 83, 63, 80, 60, 93, 36, 59, 44, 90, 76, 47, 50, 62, 97, 79, 19, 29, 74, 41, 51, 39, 97, 76, 96, 88, 62, 75, 54, 90, 63, 84, 52, 67, 95, 30, 26, 52, 92, 42, 39, 48, 77, 102, 73, 95, 97, 52, 69, 96, 35, 51, 33, 68, 97, 71
              |54, 80, 18, 63, 10, 62, 39, 40, 101, 22, 42, 77, 29, 101, 50, 21, 95, 29, 56, 86, 93, 53, 88, 105, 78, 50, 21, 9, 73, 88, 9, 95, 51, 60, 5, 56, 43, 38, 57, 47, 51, 38, 47, 51, 66, 39, 75, 42, 73, 102, 97, 52, 16, 81, 66, 36, 90, 31, 48, 91, 32, 57, 81, 24, 76, 45, 104, 40, 8, 61, 83, 15, 64, 31, 72, 63, 44, 63, 85, 99, 87, 17, 54, 50, 43, 48, 59, 105, 74, 45, 49, 34, 23, 93, 44, 47, 36, 97, 24, 54, 46, 50, 74, 72, 38, 25, 84, 21, 48, 108, 75, 98, 66, 74, 66, 88, 99, 95, 40, 22, 30, 52, 66, 79, 102, 97, 41, 57, 94, 69, 75, 79, 22, 93, 62, 68, 58, 75, 81, 81, 62, 113, 106, 16, 66, 44, 68, 1, 64, 50, 102, 43, 100, 40, 70, 34, 34, 34, 50, 4, 63, 54, 86, 61, 78, 48, 25, 89, 77, 19, 22, 37, 39, 90, 61, 44, 54, 90, 28, 98, 100, 30, 75, 53, 72, 42, 5, 49, 98, 42, 42, 73, 69, 82, 102, 86, 108, 95, 55, 28
              |74, 13, 72, 40, 71, 47, 53, 78, 64, 59, 76, 9, 56, 26, 71, 57, 20, 47, 40, 41, 22, 49, 19, 37, 16, 57, 56, 73, 44, 61, 66, 20, 44, 47, 76, 50, 50, 88, 65, 58, 43, 60, 40, 72, 11, 39, 31, 68, 57, 27, 21, 63, 67, 37, 15, 88, 28, 45, 28, 31, 64, 24, 14, 54, 14, 56, 66, 40, 68, 26, 32, 72, 24, 90, 12, 61, 33, 45, 58, 44, 15, 81, 36, 30, 43, 36, 43, 71, 13, 84, 65, 89, 58, 66, 80, 37, 67, 23, 57, 70, 70, 61, 34, 26, 93, 55, 42, 75, 71, 35, 65, 65, 25, 5, 24, 36, 46, 24, 50, 71, 50, 41, 33, 65, 26, 24, 38, 31, 43, 21, 10, 21, 54, 39, 25, 29, 40, 5, 5, 9, 17, 42, 70, 61, 59, 61, 33, 75, 31, 70, 27, 39, 24, 70, 46, 50, 41, 46, 74, 75, 24, 41, 42, 16, 19, 28, 84, 44, 66, 75, 54, 56, 38, 58, 35, 62, 70, 35, 80, 25, 30, 54, 63, 59, 8, 34, 73, 80, 42, 75, 77, 21, 39, 66, 28, 20, 38, 37, 73, 55
              |114, 46, 94, 90, 88, 23, 46, 58, 16, 64, 110, 49, 85, 73, 44, 65, 68, 64, 86, 19, 51, 32, 75, 91, 42, 36, 66, 89, 15, 4, 78, 68, 35, 95, 82, 96, 42, 70, 109, 39, 87, 96, 41, 44, 62, 54, 26, 49, 13, 70, 66, 37, 88, 21, 67, 72, 37, 66, 64, 88, 96, 69, 71, 78, 43, 95, 19, 74, 82, 37, 27, 92, 76, 78, 67, 26, 67, 94, 1, 29, 70, 79, 36, 71, 44, 76, 28, 20, 69, 60, 41, 75, 62, 9, 57, 77, 100, 72, 82, 111, 47, 37, 89, 32, 76, 81, 16, 70, 109, 84, 17, 13, 77, 52, 36, 26, 28, 50, 87, 95, 78, 35, 85, 14, 68, 77, 72, 37, 25, 75, 47, 78, 67, 27, 75, 30, 88, 63, 58, 51, 47, 92, 21, 71, 22, 43, 26, 85, 30, 44, 75, 47, 64, 51, 16, 82, 65, 54, 47, 88, 75, 86, 18, 49, 39, 61, 76, 18, 17, 72, 70, 48, 54, 5, 30, 44, 111, 30, 69, 77, 83, 83, 15, 103, 50, 57, 86, 54, 30, 54, 56, 36, 21, 12, 76, 44, 89, 33, 42, 57
              |36, 81, 2, 52, 10, 73, 52, 58, 111, 34, 23, 78, 19, 98, 67, 32, 92, 33, 45, 94, 94, 64, 83, 98, 81, 64, 30, 10, 82, 99, 19, 92, 61, 48, 24, 42, 55, 57, 40, 61, 40, 23, 55, 67, 63, 44, 82, 58, 85, 100, 95, 67, 8, 88, 62, 55, 94, 32, 46, 83, 16, 52, 76, 20, 78, 30, 114, 34, 16, 66, 89, 4, 57, 50, 67, 76, 41, 50, 97, 105, 83, 36, 61, 45, 52, 41, 68, 116, 70, 63, 64, 53, 35, 105, 62, 40, 18, 94, 17, 36, 62, 64, 64, 77, 57, 19, 92, 40, 30, 103, 88, 108, 59, 74, 71, 94, 106, 96, 29, 4, 24, 61, 57, 92, 100, 92, 36, 63, 101, 62, 76, 72, 29, 99, 56, 74, 47, 73, 79, 81, 64, 107, 116, 26, 79, 59, 75, 18, 71, 66, 98, 50, 98, 57, 80, 25, 35, 42, 67, 15, 57, 43, 93, 62, 81, 47, 44, 96, 91, 37, 26, 50, 44, 100, 68, 59, 36, 96, 47, 94, 94, 21, 88, 37, 72, 44, 14, 67, 103, 60, 60, 77, 77, 95, 98, 89, 102, 100, 72, 40
              |31, 56, 45, 6, 49, 72, 62, 82, 102, 54, 37, 51, 29, 60, 83, 51, 56, 41, 4, 80, 65, 67, 43, 55, 57, 72, 49, 51, 76, 94, 50, 56, 62, 4, 61, 6, 62, 87, 22, 71, 7, 24, 55, 84, 33, 43, 67, 76, 85, 63, 59, 78, 43, 74, 29, 86, 71, 36, 28, 39, 31, 22, 38, 34, 54, 17, 105, 22, 50, 54, 72, 47, 19, 85, 32, 83, 26, 5, 92, 86, 45, 72, 57, 20, 54, 16, 66, 108, 33, 89, 78, 86, 55, 100, 86, 16, 31, 56, 34, 27, 80, 75, 19, 61, 90, 32, 79, 70, 29, 62, 91, 102, 19, 46, 55, 76, 88, 68, 18, 42, 29, 60, 13, 94, 64, 52, 23, 55, 83, 23, 51, 31, 45, 81, 19, 62, 4, 39, 47, 53, 44, 64, 108, 50, 83, 72, 64, 57, 60, 82, 59, 50, 64, 76, 76, 24, 34, 49, 85, 55, 20, 5, 80, 42, 59, 31, 78, 82, 94, 69, 42, 63, 42, 93, 61, 73, 27, 76, 77, 54, 52, 28, 90, 16, 47, 37, 53, 89, 84, 82, 83, 58, 70, 96, 59, 63, 60, 79, 87, 56
              |11, 74, 33, 27, 40, 83, 68, 83, 117, 54, 17, 70, 24, 81, 87, 51, 76, 44, 24, 96, 85, 76, 64, 75, 75, 79, 49, 41, 89, 108, 45, 76, 71, 20, 55, 15, 69, 85, 7, 77, 20, 12, 64, 88, 52, 51, 83, 79, 97, 84, 80, 84, 34, 90, 48, 83, 89, 41, 41, 59, 18, 40, 59, 32, 72, 9, 120, 30, 44, 68, 88, 36, 40, 80, 52, 91, 38, 23, 105, 104, 66, 66, 68, 35, 63, 29, 77, 123, 54, 89, 83, 83, 56, 113, 87, 28, 15, 77, 29, 7, 84, 82, 39, 77, 87, 29, 95, 67, 8, 83, 102, 116, 40, 65, 71, 93, 105, 87, 17, 29, 29, 70, 34, 104, 85, 73, 32, 67, 100, 44, 69, 52, 46, 98, 39, 76, 24, 59, 67, 72, 60, 84, 122, 48, 92, 77, 79, 49, 74, 86, 81, 59, 85, 79, 88, 23, 40, 55, 89, 46, 40, 22, 96, 58, 77, 44, 74, 98, 104, 65, 43, 68, 51, 107, 74, 78, 7, 94, 75, 75, 73, 24, 100, 5, 65, 47, 45, 91, 102, 84, 84, 75, 83, 107, 80, 82, 80, 97, 92, 58
              |71, 32, 79, 34, 81, 68, 72, 96, 83, 74, 77, 29, 62, 20, 91, 72, 18, 60, 38, 61, 34, 69, 4, 18, 36, 77, 70, 83, 65, 81, 78, 18, 64, 41, 89, 46, 69, 105, 61, 77, 43, 63, 60, 92, 23, 55, 52, 87, 79, 25, 22, 83, 76, 57, 21, 105, 46, 57, 39, 10, 68, 30, 8, 64, 35, 56, 86, 47, 79, 47, 52, 80, 24, 106, 16, 82, 43, 39, 79, 61, 9, 96, 56, 37, 62, 40, 64, 90, 13, 102, 85, 106, 74, 86, 99, 41, 70, 17, 65, 67, 90, 81, 23, 47, 110, 63, 62, 91, 69, 22, 86, 85, 23, 26, 45, 55, 63, 36, 53, 77, 58, 61, 27, 86, 26, 12, 46, 51, 61, 19, 31, 9, 67, 58, 25, 50, 37, 17, 20, 27, 37, 26, 89, 74, 80, 80, 55, 86, 52, 90, 20, 57, 27, 88, 68, 56, 54, 62, 94, 86, 24, 40, 62, 35, 39, 40, 100, 63, 88, 91, 66, 74, 54, 78, 56, 81, 67, 53, 97, 14, 13, 60, 84, 56, 29, 49, 84, 99, 59, 94, 96, 42, 61, 87, 19, 37, 21, 54, 93, 72
              |25, 71, 16, 36, 22, 71, 53, 66, 107, 38, 17, 68, 8, 84, 71, 35, 79, 30, 30, 88, 83, 63, 69, 83, 71, 65, 33, 23, 79, 97, 27, 79, 59, 31, 36, 26, 55, 67, 25, 63, 24, 7, 52, 72, 51, 40, 75, 63, 84, 87, 82, 69, 16, 82, 49, 65, 85, 28, 35, 67, 2, 39, 62, 16, 68, 14, 110, 23, 25, 60, 82, 18, 43, 62, 54, 77, 31, 34, 94, 98, 69, 48, 57, 32, 50, 27, 66, 113, 56, 71, 68, 64, 39, 103, 70, 26, 6, 80, 12, 23, 67, 67, 48, 70, 68, 13, 87, 49, 18, 89, 89, 106, 44, 63, 64, 87, 99, 86, 13, 12, 16, 59, 41, 92, 87, 78, 25, 58, 94, 48, 66, 57, 30, 92, 41, 68, 31, 60, 67, 70, 55, 92, 113, 31, 79, 62, 70, 31, 65, 70, 84, 47, 86, 62, 77, 13, 28, 41, 72, 28, 42, 27, 88, 53, 72, 37, 55, 91, 91, 47, 26, 52, 39, 97, 64, 62, 23, 88, 57, 80, 79, 10, 88, 22, 62, 37, 27, 74, 96, 66, 67, 69, 73, 94, 85, 79, 87, 92, 76, 43
              |32, 69, 12, 39, 16, 65, 46, 59, 102, 31, 23, 65, 5, 84, 64, 28, 79, 24, 32, 84, 81, 57, 69, 85, 69, 59, 26, 18, 74, 91, 20, 79, 53, 35, 30, 31, 49, 60, 32, 56, 27, 13, 47, 65, 50, 34, 71, 56, 79, 87, 81, 63, 10, 78, 49, 58, 82, 22, 33, 69, 9, 38, 63, 10, 66, 20, 105, 21, 19, 55, 78, 14, 43, 55, 54, 71, 28, 38, 89, 94, 69, 41, 52, 31, 44, 27, 60, 107, 56, 64, 61, 58, 32, 97, 63, 26, 13, 80, 6, 30, 60, 60, 50, 66, 62, 7, 82, 42, 25, 90, 82, 100, 45, 61, 60, 83, 95, 84, 16, 10, 11, 53, 44, 86, 86, 78, 23, 53, 90, 48, 64, 59, 23, 88, 42, 64, 34, 59, 66, 68, 52, 93, 108, 24, 73, 55, 65, 25, 61, 63, 85, 41, 85, 55, 72, 11, 24, 35, 65, 22, 43, 30, 83, 50, 69, 35, 49, 86, 85, 40, 20, 46, 34, 92, 59, 55, 30, 85, 50, 80, 80, 7, 82, 28, 60, 33, 21, 66, 92, 59, 60, 65, 68, 89, 85, 76, 89, 89, 69, 36
              |103, 37, 83, 78, 78, 14, 37, 53, 26, 54, 99, 39, 74, 65, 40, 55, 59, 53, 75, 15, 44, 23, 65, 82, 33, 29, 56, 79, 4, 15, 69, 59, 25, 83, 73, 84, 33, 65, 97, 32, 75, 84, 31, 40, 51, 43, 16, 43, 12, 62, 58, 32, 78, 14, 56, 67, 31, 55, 52, 78, 84, 58, 61, 67, 33, 84, 28, 62, 72, 25, 20, 82, 64, 72, 57, 23, 55, 83, 13, 28, 60, 71, 25, 59, 34, 64, 17, 30, 58, 57, 36, 70, 53, 21, 53, 65, 89, 64, 71, 99, 42, 31, 77, 21, 71, 70, 12, 62, 98, 76, 19, 23, 66, 42, 25, 21, 28, 43, 75, 85, 67, 24, 74, 19, 60, 68, 60, 25, 23, 64, 37, 67, 57, 24, 64, 18, 76, 52, 48, 42, 36, 84, 31, 61, 19, 36, 15, 76, 19, 40, 67, 36, 56, 45, 6, 71, 54, 43, 44, 78, 63, 75, 14, 38, 30, 49, 69, 16, 21, 64, 59, 40, 43, 15, 18, 37, 99, 25, 63, 68, 75, 72, 17, 91, 39, 45, 77, 50, 28, 49, 51, 26, 9, 19, 68, 36, 81, 29, 39, 47
              |77, 11, 76, 43, 75, 48, 56, 81, 63, 62, 80, 8, 60, 23, 73, 61, 16, 51, 43, 40, 18, 51, 18, 35, 15, 59, 60, 77, 44, 60, 70, 16, 46, 50, 80, 53, 53, 91, 69, 60, 47, 64, 43, 74, 15, 42, 31, 71, 58, 23, 17, 65, 71, 36, 18, 91, 26, 49, 32, 31, 68, 28, 15, 58, 14, 60, 65, 44, 72, 28, 31, 76, 28, 93, 15, 63, 37, 48, 58, 42, 13, 85, 39, 34, 46, 40, 45, 70, 15, 86, 67, 93, 62, 65, 83, 41, 71, 20, 61, 73, 73, 63, 36, 26, 96, 59, 41, 78, 74, 33, 65, 64, 28, 6, 25, 35, 44, 21, 54, 75, 54, 43, 36, 66, 22, 22, 42, 33, 41, 24, 10, 22, 58, 38, 28, 30, 43, 8, 1, 7, 20, 40, 68, 64, 60, 63, 34, 79, 32, 72, 24, 42, 20, 72, 47, 54, 45, 49, 77, 79, 27, 45, 41, 19, 18, 32, 87, 42, 67, 79, 58, 59, 42, 57, 37, 65, 73, 33, 84, 23, 28, 58, 63, 63, 10, 38, 77, 83, 40, 78, 80, 21, 40, 66, 25, 17, 36, 35, 75, 59
              |99, 49, 74, 80, 68, 9, 25, 36, 38, 43, 93, 50, 68, 78, 23, 45, 72, 46, 75, 33, 58, 13, 75, 93, 45, 14, 46, 69, 17, 25, 58, 72, 18, 84, 61, 83, 22, 48, 95, 17, 75, 80, 25, 23, 57, 38, 30, 27, 9, 76, 71, 15, 69, 30, 61, 50, 47, 49, 52, 87, 78, 60, 70, 60, 44, 81, 41, 60, 62, 30, 36, 72, 68, 56, 64, 6, 54, 84, 22, 46, 71, 57, 23, 60, 27, 64, 14, 41, 66, 39, 19, 53, 42, 29, 36, 64, 83, 76, 65, 96, 25, 15, 82, 32, 54, 63, 29, 48, 93, 89, 12, 34, 70, 52, 33, 37, 45, 58, 72, 76, 61, 20, 77, 16, 74, 79, 58, 27, 41, 69, 48, 75, 48, 41, 67, 28, 77, 61, 59, 53, 41, 97, 42, 51, 3, 21, 24, 64, 25, 23, 80, 31, 70, 29, 13, 66, 49, 36, 26, 67, 67, 75, 31, 43, 42, 49, 53, 34, 14, 50, 51, 27, 39, 27, 21, 21, 96, 42, 47, 80, 86, 67, 11, 89, 48, 43, 66, 33, 46, 32, 34, 37, 19, 18, 81, 50, 93, 46, 21, 36
              |89, 30, 95, 53, 96, 70, 79, 104, 76, 85, 95, 29, 78, 2, 96, 83, 7, 73, 56, 56, 24, 74, 15, 17, 34, 82, 82, 98, 64, 77, 91, 7, 69, 60, 102, 65, 76, 114, 80, 83, 61, 80, 66, 97, 35, 65, 50, 94, 78, 7, 9, 88, 91, 54, 35, 114, 38, 70, 53, 25, 85, 45, 21, 78, 35, 74, 78, 63, 93, 51, 47, 96, 41, 116, 30, 85, 57, 57, 76, 52, 14, 108, 62, 52, 69, 57, 67, 83, 27, 110, 90, 116, 85, 82, 106, 58, 87, 4, 81, 85, 96, 86, 42, 47, 119, 79, 58, 101, 87, 10, 85, 79, 40, 30, 47, 49, 54, 26, 70, 94, 73, 66, 46, 85, 9, 7, 61, 56, 53, 36, 32, 27, 80, 50, 42, 51, 55, 25, 22, 26, 43, 18, 81, 86, 82, 86, 55, 100, 54, 95, 1, 65, 12, 95, 68, 72, 67, 72, 100, 100, 41, 58, 57, 43, 37, 53, 110, 57, 87, 102, 79, 82, 64, 74, 59, 88, 85, 46, 107, 5, 12, 76, 83, 75, 33, 60, 98, 106, 50, 101, 103, 42, 61, 85, 1, 31, 15, 45, 98, 82
              |122, 51, 102, 97, 96, 31, 53, 64, 10, 71, 118, 55, 93, 77, 50, 73, 72, 72, 94, 23, 55, 40, 80, 95, 47, 43, 74, 97, 23, 4, 86, 72, 43, 102, 90, 103, 50, 76, 117, 46, 95, 103, 49, 50, 69, 62, 32, 56, 20, 73, 69, 44, 96, 26, 73, 78, 40, 74, 71, 94, 103, 76, 77, 86, 49, 103, 12, 82, 90, 44, 32, 100, 82, 84, 74, 32, 74, 102, 7, 30, 75, 86, 44, 78, 52, 83, 36, 12, 75, 66, 48, 81, 70, 3, 63, 84, 108, 76, 90, 119, 53, 44, 95, 38, 82, 89, 21, 77, 117, 88, 21, 5, 84, 58, 43, 29, 28, 53, 94, 103, 86, 43, 92, 17, 71, 81, 80, 44, 27, 82, 53, 84, 75, 29, 82, 37, 95, 68, 63, 56, 54, 96, 13, 78, 28, 50, 34, 93, 38, 50, 79, 55, 67, 58, 24, 90, 73, 62, 53, 95, 82, 94, 22, 56, 44, 68, 82, 21, 20, 79, 77, 56, 62, 5, 38, 50, 119, 33, 76, 81, 88, 91, 20, 110, 56, 64, 94, 59, 31, 60, 62, 42, 29, 15, 80, 48, 94, 35, 47, 64
              |73, 22, 77, 37, 77, 59, 63, 88, 73, 67, 77, 19, 60, 19, 82, 65, 14, 55, 39, 51, 25, 60, 8, 26, 26, 68, 64, 79, 55, 71, 73, 14, 55, 44, 84, 48, 61, 98, 64, 69, 43, 62, 51, 83, 16, 48, 42, 79, 69, 22, 17, 74, 73, 47, 16, 98, 36, 52, 34, 20, 67, 26, 4, 60, 25, 56, 76, 44, 75, 38, 42, 77, 23, 99, 11, 73, 39, 42, 69, 52, 4, 90, 47, 34, 53, 38, 54, 81, 9, 94, 76, 99, 67, 76, 91, 39, 69, 15, 62, 69, 81, 72, 28, 37, 103, 60, 52, 84, 70, 26, 76, 75, 23, 16, 35, 46, 54, 28, 52, 75, 55, 52, 30, 76, 22, 14, 42, 42, 51, 18, 21, 13, 61, 48, 24, 41, 38, 8, 10, 17, 28, 32, 79, 68, 71, 72, 45, 82, 42, 81, 20, 49, 22, 80, 58, 54, 48, 55, 85, 82, 23, 41, 52, 27, 29, 34, 93, 53, 78, 84, 61, 66, 47, 68, 46, 73, 69, 44, 90, 16, 19, 58, 74, 58, 20, 42, 79, 91, 50, 86, 88, 32, 51, 77, 20, 27, 28, 45, 84, 64
              |71, 58, 42, 64, 35, 32, 9, 22, 71, 10, 63, 57, 40, 84, 24, 13, 78, 20, 57, 58, 71, 23, 75, 94, 56, 20, 14, 35, 44, 58, 25, 78, 22, 64, 28, 62, 13, 30, 70, 17, 54, 52, 20, 25, 52, 21, 48, 16, 43, 84, 78, 23, 36, 53, 54, 30, 65, 24, 38, 82, 49, 48, 68, 31, 53, 56, 73, 38, 28, 36, 56, 40, 57, 32, 59, 33, 36, 66, 55, 71, 72, 26, 27, 44, 16, 45, 29, 74, 62, 28, 21, 31, 9, 63, 26, 45, 53, 81, 35, 69, 20, 21, 70, 46, 35, 34, 55, 18, 65, 94, 45, 67, 59, 55, 41, 60, 71, 72, 47, 44, 34, 24, 64, 49, 83, 82, 38, 32, 66, 60, 54, 69, 18, 65, 55, 42, 59, 60, 63, 61, 42, 100, 75, 18, 35, 15, 40, 31, 38, 23, 85, 19, 80, 16, 40, 40, 26, 13, 25, 33, 56, 56, 57, 42, 54, 36, 26, 60, 47, 19, 21, 7, 22, 59, 33, 15, 69, 63, 22, 84, 87, 39, 45, 64, 52, 27, 32, 28, 70, 21, 23, 49, 40, 52, 86, 63, 95, 68, 29, 5
              |16, 84, 21, 43, 29, 85, 66, 77, 122, 50, 3, 81, 23, 95, 84, 47, 90, 44, 38, 102, 96, 77, 79, 92, 85, 78, 46, 30, 93, 111, 37, 90, 73, 37, 44, 31, 69, 77, 23, 76, 33, 14, 66, 85, 63, 54, 89, 75, 98, 98, 93, 82, 25, 96, 61, 74, 99, 42, 49, 76, 12, 51, 73, 30, 82, 20, 124, 36, 35, 74, 96, 24, 53, 70, 65, 91, 44, 40, 108, 112, 80, 56, 72, 45, 64, 39, 80, 127, 67, 82, 81, 73, 51, 117, 81, 38, 8, 91, 26, 17, 80, 80, 55, 84, 77, 27, 101, 59, 11, 98, 102, 120, 54, 76, 78, 101, 113, 98, 25, 17, 30, 73, 49, 106, 98, 88, 38, 72, 108, 58, 79, 67, 43, 106, 52, 82, 39, 72, 79, 83, 68, 100, 127, 43, 93, 75, 84, 38, 80, 83, 95, 61, 98, 74, 91, 26, 43, 55, 84, 35, 53, 36, 102, 67, 86, 51, 64, 105, 105, 57, 40, 66, 53, 111, 78, 75, 17, 102, 67, 90, 89, 24, 102, 23, 75, 52, 34, 85, 110, 78, 78, 83, 87, 108, 95, 92, 96, 106, 89, 56
              |79, 17, 67, 51, 63, 26, 35, 59, 49, 45, 78, 16, 53, 45, 51, 44, 38, 37, 48, 28, 30, 28, 40, 58, 14, 36, 44, 65, 25, 43, 56, 38, 23, 56, 64, 58, 31, 70, 72, 38, 50, 62, 22, 51, 23, 26, 15, 49, 37, 44, 38, 42, 61, 22, 28, 70, 25, 37, 27, 52, 64, 31, 35, 49, 12, 60, 52, 39, 59, 6, 21, 66, 36, 73, 29, 40, 31, 56, 40, 37, 36, 67, 16, 33, 25, 39, 22, 56, 31, 64, 45, 72, 44, 48, 61, 40, 67, 42, 52, 75, 50, 40, 49, 9, 75, 51, 27, 59, 74, 55, 44, 49, 38, 17, 3, 26, 38, 31, 52, 67, 46, 21, 46, 45, 43, 45, 37, 11, 33, 36, 13, 40, 43, 30, 36, 9, 49, 25, 24, 20, 8, 62, 55, 49, 38, 41, 13, 65, 10, 50, 46, 23, 39, 50, 26, 49, 34, 32, 54, 66, 35, 48, 28, 10, 13, 24, 68, 30, 46, 60, 44, 38, 26, 41, 14, 42, 75, 27, 64, 46, 51, 51, 42, 66, 13, 25, 64, 60, 35, 56, 58, 8, 19, 46, 47, 22, 59, 31, 52, 40
              |78, 81, 42, 80, 34, 52, 31, 18, 89, 23, 66, 80, 49, 107, 31, 26, 101, 37, 73, 79, 94, 43, 97, 115, 79, 37, 27, 34, 64, 75, 27, 101, 44, 79, 20, 76, 35, 13, 80, 34, 69, 60, 43, 31, 74, 43, 71, 24, 60, 107, 102, 36, 39, 75, 76, 11, 88, 41, 58, 103, 55, 68, 90, 42, 76, 66, 91, 55, 29, 60, 79, 39, 76, 9, 81, 47, 55, 81, 73, 93, 94, 9, 50, 62, 39, 62, 50, 91, 83, 21, 32, 10, 23, 79, 21, 62, 59, 104, 44, 77, 27, 35, 89, 69, 15, 44, 76, 6, 72, 116, 59, 85, 79, 78, 65, 82, 92, 95, 59, 46, 47, 47, 82, 64, 106, 104, 55, 55, 88, 80, 77, 90, 31, 87, 75, 65, 75, 82, 86, 84, 65, 122, 93, 26, 51, 30, 63, 26, 60, 30, 108, 43, 103, 22, 60, 52, 44, 35, 29, 29, 76, 71, 78, 65, 78, 57, 3, 81, 61, 7, 34, 28, 43, 78, 56, 29, 77, 86, 4, 106, 109, 49, 60, 75, 75, 48, 29, 26, 92, 21, 20, 72, 62, 67, 109, 87, 118, 91, 35, 26
              |22, 66, 44, 15, 50, 81, 70, 88, 112, 59, 31, 62, 31, 69, 90, 56, 65, 47, 15, 90, 75, 76, 52, 62, 68, 81, 54, 52, 86, 104, 53, 65, 71, 8, 64, 5, 70, 92, 12, 79, 14, 22, 64, 91, 43, 51, 78, 83, 95, 73, 69, 86, 44, 85, 39, 90, 82, 43, 37, 46, 29, 33, 48, 38, 65, 14, 115, 29, 52, 64, 82, 47, 30, 88, 43, 91, 35, 10, 102, 97, 55, 75, 66, 30, 63, 25, 76, 118, 43, 94, 86, 90, 60, 110, 92, 25, 28, 65, 36, 18, 87, 83, 26, 72, 94, 35, 90, 74, 22, 70, 101, 112, 30, 57, 66, 87, 98, 78, 20, 40, 33, 69, 22, 103, 73, 61, 31, 64, 94, 34, 62, 40, 50, 91, 29, 72, 14, 50, 58, 63, 55, 71, 118, 54, 92, 80, 75, 59, 70, 89, 68, 58, 74, 83, 85, 27, 41, 56, 92, 56, 30, 14, 90, 53, 70, 40, 82, 93, 103, 73, 47, 70, 50, 103, 71, 80, 18, 87, 82, 63, 60, 30, 99, 9, 57, 46, 55, 95, 95, 88, 89, 69, 80, 105, 68, 74, 67, 90, 95, 62
              |49, 47, 64, 14, 67, 74, 70, 93, 98, 67, 57, 43, 47, 43, 91, 64, 40, 53, 20, 75, 53, 72, 26, 35, 50, 79, 62, 69, 75, 93, 67, 40, 66, 20, 78, 25, 69, 100, 39, 78, 25, 44, 61, 92, 27, 51, 64, 86, 87, 47, 44, 85, 61, 70, 23, 99, 62, 49, 34, 19, 51, 24, 23, 51, 48, 37, 100, 36, 67, 53, 66, 65, 15, 99, 22, 87, 35, 17, 90, 78, 30, 87, 60, 28, 61, 28, 69, 104, 22, 100, 86, 100, 67, 98, 97, 28, 51, 39, 51, 45, 89, 82, 1, 58, 104, 50, 75, 84, 48, 43, 93, 98, 13, 38, 53, 70, 80, 56, 36, 61, 45, 64, 8, 95, 48, 34, 35, 56, 77, 14, 44, 15, 59, 74, 16, 60, 18, 29, 36, 43, 43, 44, 103, 64, 86, 80, 63, 74, 60, 90, 42, 56, 49, 86, 76, 41, 46, 59, 94, 73, 16, 22, 75, 40, 53, 36, 92, 77, 96, 83, 57, 72, 50, 91, 62, 81, 45, 69, 91, 36, 33, 46, 92, 35, 40, 45, 71, 98, 76, 92, 94, 53, 69, 96, 42, 54, 40, 71, 95, 67
              |68, 17, 66, 35, 65, 46, 49, 74, 66, 54, 71, 13, 50, 31, 68, 52, 25, 42, 35, 43, 27, 46, 22, 40, 19, 54, 51, 67, 44, 62, 60, 25, 41, 42, 71, 45, 47, 83, 60, 55, 38, 55, 37, 69, 6, 34, 32, 65, 57, 33, 27, 60, 62, 39, 10, 83, 33, 39, 22, 32, 59, 18, 15, 49, 17, 50, 69, 34, 63, 25, 34, 66, 20, 85, 9, 60, 27, 40, 59, 48, 18, 76, 34, 24, 39, 30, 41, 73, 11, 80, 62, 85, 53, 67, 77, 31, 61, 28, 51, 64, 67, 58, 31, 27, 88, 49, 44, 70, 65, 40, 64, 67, 21, 8, 23, 39, 50, 30, 44, 65, 44, 38, 29, 65, 32, 28, 32, 28, 46, 17, 13, 20, 48, 43, 20, 29, 35, 6, 11, 14, 14, 46, 72, 55, 58, 57, 33, 70, 30, 67, 32, 35, 30, 66, 46, 44, 36, 41, 71, 70, 19, 36, 44, 13, 22, 22, 79, 46, 66, 70, 48, 52, 33, 59, 34, 59, 64, 38, 76, 30, 33, 48, 62, 54, 9, 29, 67, 77, 46, 72, 74, 22, 39, 66, 33, 24, 42, 41, 70, 50
              |53, 36, 60, 17, 62, 62, 59, 83, 86, 58, 58, 32, 43, 38, 80, 55, 34, 44, 19, 63, 44, 60, 22, 37, 39, 67, 54, 64, 63, 81, 60, 34, 54, 24, 71, 28, 58, 91, 44, 67, 24, 43, 49, 81, 15, 41, 52, 75, 75, 42, 37, 74, 57, 58, 10, 90, 52, 40, 23, 22, 49, 13, 16, 45, 36, 37, 89, 29, 61, 41, 54, 61, 5, 90, 11, 75, 26, 22, 78, 68, 23, 79, 48, 19, 50, 21, 57, 93, 12, 89, 74, 91, 58, 86, 86, 22, 50, 34, 46, 49, 78, 71, 11, 46, 95, 44, 64, 75, 51, 42, 81, 87, 3, 27, 41, 59, 69, 47, 34, 58, 39, 52, 10, 83, 42, 31, 28, 44, 65, 2, 32, 10, 50, 62, 6, 48, 18, 18, 26, 33, 30, 45, 92, 57, 74, 69, 51, 68, 48, 79, 38, 45, 42, 76, 64, 37, 37, 48, 83, 67, 6, 21, 64, 28, 41, 25, 84, 66, 83, 75, 49, 61, 40, 79, 50, 70, 49, 58, 82, 33, 32, 41, 79, 38, 29, 34, 65, 88, 65, 82, 83, 42, 57, 84, 38, 43, 40, 60, 83, 57
              |89, 64, 58, 80, 50, 28, 16, 12, 63, 27, 80, 64, 57, 93, 7, 30, 86, 37, 73, 56, 76, 21, 86, 105, 61, 13, 32, 51, 40, 49, 40, 86, 25, 81, 40, 79, 17, 24, 87, 11, 71, 69, 27, 8, 64, 35, 50, 2, 34, 92, 86, 10, 53, 52, 67, 25, 67, 41, 53, 95, 66, 63, 79, 49, 59, 73, 65, 55, 44, 42, 57, 55, 71, 31, 71, 21, 52, 82, 47, 69, 82, 33, 32, 59, 25, 61, 29, 65, 74, 16, 6, 28, 26, 53, 13, 61, 71, 90, 52, 87, 3, 10, 85, 50, 30, 52, 53, 24, 83, 103, 34, 59, 73, 64, 47, 60, 69, 77, 64, 61, 52, 28, 79, 38, 91, 92, 54, 37, 64, 74, 62, 82, 35, 64, 70, 45, 75, 71, 72, 68, 51, 110, 67, 34, 25, 7, 42, 45, 41, 6, 94, 30, 87, 4, 36, 58, 43, 28, 8, 47, 70, 72, 55, 52, 59, 50, 29, 57, 35, 27, 38, 14, 36, 52, 36, 6, 87, 64, 22, 93, 98, 57, 34, 82, 60, 41, 47, 13, 69, 8, 10, 53, 39, 41, 95, 68, 106, 69, 12, 22
              |89, 16, 89, 54, 88, 55, 66, 91, 61, 74, 93, 16, 73, 14, 82, 73, 9, 64, 55, 40, 9, 59, 20, 32, 19, 68, 72, 90, 49, 62, 83, 9, 55, 61, 93, 65, 63, 101, 80, 69, 59, 77, 54, 83, 28, 54, 35, 81, 63, 12, 7, 74, 84, 38, 31, 102, 23, 62, 45, 34, 81, 40, 21, 71, 21, 72, 63, 57, 85, 38, 32, 89, 39, 105, 26, 70, 50, 59, 60, 38, 16, 97, 48, 47, 57, 52, 53, 68, 25, 96, 76, 104, 74, 66, 93, 53, 84, 13, 74, 85, 82, 72, 45, 32, 107, 72, 43, 90, 86, 25, 70, 64, 39, 18, 33, 34, 40, 12, 67, 88, 67, 52, 47, 70, 11, 18, 55, 43, 38, 35, 19, 30, 70, 35, 40, 37, 55, 19, 12, 12, 31, 33, 66, 77, 67, 73, 40, 92, 40, 81, 16, 53, 8, 82, 52, 67, 58, 61, 86, 92, 39, 57, 41, 31, 22, 45, 99, 42, 72, 91, 70, 69, 54, 58, 45, 74, 85, 31, 95, 18, 25, 71, 68, 75, 21, 50, 90, 92, 36, 88, 90, 27, 46, 70, 17, 15, 30, 31, 83, 70
              |81, 36, 60, 61, 55, 12, 16, 39, 49, 32, 76, 36, 51, 65, 31, 32, 58, 30, 56, 33, 48, 9, 59, 77, 33, 17, 33, 56, 20, 38, 46, 58, 4, 65, 51, 64, 13, 51, 77, 18, 56, 62, 7, 32, 39, 20, 23, 29, 26, 64, 58, 23, 54, 28, 43, 51, 40, 32, 33, 69, 62, 41, 53, 44, 31, 62, 52, 41, 49, 14, 31, 59, 49, 55, 46, 23, 35, 65, 35, 46, 55, 51, 4, 40, 11, 45, 6, 54, 48, 45, 25, 54, 30, 43, 41, 45, 66, 62, 48, 78, 30, 20, 63, 22, 56, 47, 31, 43, 76, 75, 31, 46, 51, 36, 18, 35, 46, 49, 54, 61, 44, 1, 58, 34, 62, 64, 39, 9, 41, 50, 33, 57, 34, 40, 48, 17, 58, 44, 44, 40, 24, 82, 54, 38, 22, 21, 15, 54, 13, 30, 66, 13, 59, 31, 18, 48, 31, 20, 34, 55, 48, 56, 32, 25, 31, 30, 51, 36, 33, 44, 36, 20, 21, 38, 8, 23, 78, 38, 46, 65, 70, 50, 30, 70, 32, 24, 54, 40, 45, 36, 38, 25, 16, 36, 67, 40, 78, 43, 33, 25
              |97, 24, 82, 69, 77, 21, 40, 61, 31, 55, 95, 27, 70, 52, 49, 56, 47, 51, 67, 10, 31, 28, 53, 69, 20, 36, 56, 79, 11, 25, 69, 47, 27, 75, 75, 76, 36, 72, 91, 38, 68, 79, 30, 49, 41, 40, 4, 50, 25, 50, 45, 40, 76, 4, 45, 74, 19, 52, 45, 66, 80, 49, 49, 64, 21, 78, 34, 57, 72, 19, 9, 81, 55, 78, 46, 33, 49, 74, 23, 22, 48, 75, 23, 52, 34, 57, 21, 37, 47, 65, 44, 76, 54, 31, 61, 58, 84, 51, 68, 93, 50, 39, 67, 10, 78, 67, 8, 66, 92, 64, 32, 31, 56, 30, 16, 11, 22, 31, 70, 82, 63, 25, 64, 31, 48, 55, 55, 21, 17, 53, 25, 56, 56, 16, 54, 10, 68, 40, 36, 29, 27, 71, 37, 61, 30, 42, 9, 77, 13, 48, 54, 34, 44, 52, 15, 66, 50, 43, 52, 79, 54, 67, 9, 29, 17, 42, 74, 13, 33, 68, 58, 43, 40, 23, 16, 44, 93, 15, 69, 56, 62, 68, 30, 84, 28, 41, 77, 59, 21, 57, 59, 14, 10, 32, 55, 23, 68, 20, 49, 49
              |82, 29, 64, 59, 59, 14, 23, 47, 46, 37, 78, 29, 53, 58, 38, 37, 51, 33, 54, 28, 41, 15, 53, 71, 26, 23, 38, 60, 18, 36, 50, 51, 11, 63, 57, 63, 20, 58, 76, 25, 55, 63, 12, 38, 34, 22, 17, 36, 27, 57, 51, 29, 58, 23, 38, 59, 33, 34, 31, 64, 63, 38, 47, 47, 24, 63, 49, 41, 54, 8, 25, 62, 45, 62, 40, 28, 34, 63, 34, 40, 49, 58, 5, 38, 16, 43, 9, 52, 43, 52, 32, 61, 36, 42, 48, 44, 67, 55, 51, 78, 37, 27, 59, 15, 64, 49, 26, 49, 76, 68, 33, 45, 47, 30, 11, 29, 41, 42, 54, 64, 46, 8, 55, 35, 55, 58, 39, 4, 36, 46, 26, 52, 38, 34, 45, 10, 56, 38, 37, 33, 18, 75, 52, 43, 26, 28, 9, 59, 6, 37, 59, 16, 52, 38, 17, 50, 33, 25, 41, 60, 44, 54, 28, 20, 24, 28, 58, 31, 36, 51, 40, 27, 22, 36, 3, 30, 78, 32, 53, 59, 64, 51, 32, 70, 26, 24, 58, 47, 39, 43, 46, 18, 12, 37, 60, 33, 72, 37, 39, 31
              |111, 50, 87, 89, 81, 18, 38, 48, 26, 56, 106, 53, 80, 78, 34, 58, 73, 59, 85, 27, 57, 25, 79, 95, 46, 27, 59, 82, 16, 12, 71, 73, 30, 93, 74, 94, 35, 60, 106, 30, 85, 91, 36, 34, 63, 49, 30, 40, 4, 76, 71, 27, 82, 27, 68, 62, 44, 61, 62, 91, 91, 69, 74, 73, 47, 92, 28, 71, 75, 37, 34, 86, 76, 68, 69, 16, 64, 93, 10, 38, 74, 70, 33, 69, 39, 74, 23, 28, 71, 50, 31, 65, 55, 16, 47, 74, 95, 77, 77, 108, 37, 28, 89, 34, 66, 76, 24, 61, 105, 90, 6, 21, 77, 55, 37, 33, 37, 56, 83, 89, 73, 30, 85, 5, 74, 81, 69, 35, 34, 76, 50, 80, 61, 35, 75, 31, 86, 65, 62, 55, 48, 98, 29, 64, 12, 34, 27, 78, 30, 34, 80, 42, 70, 42, 14, 78, 61, 48, 37, 80, 75, 85, 26, 50, 43, 59, 66, 27, 7, 63, 64, 40, 50, 15, 28, 34, 108, 37, 60, 82, 88, 79, 4, 100, 52, 53, 79, 43, 39, 44, 46, 39, 21, 6, 81, 49, 95, 41, 31, 50
              |77, 38, 88, 41, 89, 76, 80, 105, 88, 83, 84, 36, 71, 18, 99, 81, 18, 70, 46, 66, 36, 77, 10, 9, 42, 85, 80, 92, 72, 87, 87, 18, 72, 48, 98, 53, 78, 114, 67, 86, 51, 70, 68, 100, 32, 64, 58, 96, 86, 23, 22, 92, 85, 63, 30, 114, 50, 66, 48, 10, 76, 39, 16, 72, 42, 64, 90, 56, 88, 55, 57, 89, 33, 115, 25, 90, 52, 45, 85, 65, 14, 105, 65, 46, 70, 49, 72, 95, 23, 111, 94, 115, 83, 92, 108, 50, 77, 15, 74, 73, 98, 89, 29, 54, 119, 72, 68, 100, 76, 15, 93, 90, 31, 34, 52, 60, 67, 39, 61, 86, 67, 69, 34, 93, 24, 9, 55, 60, 65, 28, 38, 17, 76, 62, 34, 58, 44, 25, 26, 33, 45, 17, 93, 83, 88, 89, 62, 96, 60, 98, 16, 66, 27, 97, 75, 65, 63, 72, 103, 95, 33, 48, 67, 44, 45, 50, 109, 68, 95, 100, 75, 83, 63, 84, 64, 90, 73, 58, 106, 11, 5, 69, 91, 63, 37, 58, 93, 108, 63, 103, 105, 49, 68, 94, 16, 41, 13, 57, 102, 81
              |42, 45, 38, 21, 39, 53, 43, 64, 86, 37, 42, 41, 21, 58, 64, 34, 52, 23, 15, 64, 56, 49, 43, 60, 45, 53, 32, 41, 58, 77, 37, 52, 43, 23, 48, 22, 43, 70, 36, 52, 14, 26, 36, 65, 24, 24, 52, 58, 67, 60, 55, 59, 34, 59, 22, 69, 59, 19, 10, 45, 29, 12, 36, 22, 42, 23, 89, 6, 38, 37, 57, 39, 18, 69, 27, 64, 7, 24, 74, 73, 43, 57, 38, 5, 35, 3, 48, 92, 30, 71, 59, 70, 37, 83, 68, 3, 32, 54, 23, 38, 61, 56, 29, 46, 74, 22, 64, 53, 37, 64, 73, 85, 20, 36, 40, 62, 74, 59, 15, 36, 17, 41, 22, 75, 60, 52, 5, 37, 69, 23, 40, 33, 28, 67, 17, 45, 17, 33, 40, 43, 29, 68, 91, 34, 64, 53, 48, 45, 43, 63, 58, 31, 59, 58, 58, 15, 16, 30, 66, 44, 17, 14, 64, 27, 47, 13, 62, 67, 75, 53, 26, 44, 23, 76, 44, 54, 38, 63, 61, 54, 55, 19, 71, 29, 35, 18, 42, 70, 71, 63, 65, 44, 52, 77, 58, 52, 63, 67, 68, 37
              |53, 56, 28, 47, 23, 43, 23, 39, 81, 10, 46, 53, 22, 77, 42, 8, 71, 4, 40, 64, 69, 35, 65, 83, 54, 36, 6, 25, 52, 69, 15, 71, 31, 47, 25, 44, 26, 44, 52, 33, 37, 34, 25, 43, 43, 15, 52, 34, 56, 79, 73, 40, 22, 59, 44, 43, 66, 8, 26, 70, 31, 35, 58, 13, 51, 37, 84, 22, 18, 37, 60, 26, 43, 42, 49, 48, 22, 49, 67, 76, 64, 31, 31, 29, 22, 29, 38, 86, 52, 45, 38, 43, 11, 75, 43, 29, 36, 74, 17, 51, 39, 37, 55, 49, 47, 17, 62, 27, 48, 85, 60, 78, 45, 50, 42, 65, 76, 71, 29, 29, 16, 31, 48, 63, 78, 74, 21, 34, 71, 47, 51, 57, 2, 70, 42, 45, 42, 52, 57, 57, 37, 90, 86, 9, 50, 32, 45, 24, 41, 41, 78, 20, 76, 34, 50, 22, 11, 12, 44, 25, 43, 39, 64, 37, 54, 25, 36, 67, 62, 26, 4, 23, 15, 70, 39, 33, 51, 67, 34, 75, 77, 21, 59, 46, 47, 18, 23, 46, 75, 39, 40, 49, 47, 66, 79, 62, 86, 72, 47, 13
              |84, 89, 48, 88, 40, 58, 38, 20, 93, 31, 72, 87, 56, 115, 34, 34, 108, 45, 80, 85, 102, 49, 105, 123, 86, 42, 35, 39, 70, 79, 34, 108, 51, 87, 25, 83, 41, 10, 86, 39, 77, 67, 50, 34, 82, 50, 77, 28, 64, 115, 109, 40, 45, 81, 83, 7, 94, 49, 66, 111, 61, 76, 98, 49, 84, 73, 95, 62, 35, 67, 85, 45, 84, 1, 88, 51, 63, 89, 77, 98, 102, 13, 56, 70, 47, 70, 57, 95, 91, 20, 36, 4, 31, 83, 22, 69, 65, 111, 51, 83, 30, 40, 96, 76, 8, 52, 82, 14, 78, 124, 63, 89, 86, 86, 72, 88, 98, 102, 67, 52, 54, 53, 89, 67, 114, 112, 62, 62, 93, 88, 85, 98, 39, 93, 83, 71, 83, 90, 93, 91, 72, 130, 97, 34, 55, 35, 69, 31, 67, 34, 116, 50, 111, 26, 65, 60, 52, 43, 31, 34, 83, 79, 84, 72, 85, 64, 5, 87, 64, 15, 41, 35, 51, 82, 62, 34, 83, 92, 9, 114, 117, 57, 64, 82, 82, 56, 35, 27, 98, 24, 22, 79, 67, 70, 116, 94, 125, 97, 38, 33
              |96, 25, 99, 60, 98, 65, 77, 101, 66, 85, 101, 26, 82, 9, 92, 83, 10, 74, 62, 47, 15, 69, 23, 28, 29, 78, 83, 100, 57, 68, 93, 10, 65, 67, 103, 72, 73, 112, 87, 79, 67, 85, 64, 93, 37, 64, 44, 91, 71, 4, 6, 83, 94, 46, 39, 112, 29, 72, 55, 35, 90, 49, 27, 81, 30, 80, 68, 66, 95, 48, 39, 99, 47, 115, 34, 79, 60, 65, 67, 42, 20, 107, 58, 56, 67, 61, 62, 73, 32, 106, 86, 114, 84, 73, 103, 62, 92, 11, 84, 92, 92, 81, 50, 41, 117, 82, 50, 100, 94, 19, 78, 70, 46, 28, 43, 41, 44, 16, 75, 97, 77, 62, 53, 77, 2, 17, 64, 53, 43, 42, 29, 35, 80, 40, 48, 46, 62, 28, 22, 22, 42, 27, 71, 87, 76, 83, 50, 102, 50, 91, 11, 64, 3, 92, 61, 76, 68, 72, 95, 102, 47, 64, 48, 42, 31, 54, 109, 48, 80, 101, 80, 80, 64, 65, 54, 84, 92, 37, 105, 16, 23, 80, 76, 82, 31, 60, 100, 102, 40, 98, 100, 37, 55, 77, 12, 23, 25, 35, 93, 81
              |76, 82, 40, 79, 32, 54, 33, 21, 91, 23, 64, 81, 48, 108, 34, 25, 101, 37, 72, 81, 95, 45, 97, 115, 80, 39, 27, 31, 66, 77, 25, 101, 46, 78, 17, 74, 36, 16, 78, 36, 68, 59, 44, 34, 75, 43, 72, 26, 62, 108, 102, 38, 37, 77, 76, 13, 89, 41, 58, 103, 53, 68, 90, 40, 77, 65, 94, 54, 27, 61, 80, 37, 76, 10, 81, 50, 55, 80, 75, 94, 95, 6, 51, 62, 40, 62, 52, 94, 84, 24, 34, 12, 23, 81, 24, 61, 57, 104, 42, 75, 30, 38, 88, 71, 16, 43, 78, 7, 70, 116, 62, 87, 78, 79, 66, 84, 94, 97, 58, 44, 46, 48, 81, 66, 107, 105, 54, 56, 89, 80, 78, 90, 31, 89, 75, 66, 74, 83, 86, 85, 65, 122, 95, 25, 53, 32, 64, 23, 62, 33, 109, 43, 104, 24, 62, 51, 44, 36, 32, 26, 75, 70, 80, 66, 79, 57, 3, 83, 64, 6, 33, 29, 44, 80, 57, 31, 75, 87, 7, 106, 109, 48, 62, 74, 76, 48, 27, 29, 94, 24, 23, 73, 63, 69, 109, 88, 118, 92, 38, 26
              |99, 21, 98, 63, 97, 59, 72, 96, 58, 82, 102, 23, 82, 16, 86, 81, 15, 72, 65, 39, 8, 64, 28, 36, 24, 72, 80, 99, 50, 61, 91, 15, 60, 70, 100, 74, 69, 107, 90, 74, 69, 86, 60, 87, 37, 62, 37, 86, 64, 12, 11, 78, 93, 38, 40, 108, 22, 70, 54, 41, 91, 50, 31, 80, 26, 81, 60, 66, 93, 43, 32, 98, 49, 111, 36, 72, 59, 68, 59, 34, 24, 104, 54, 56, 63, 62, 57, 65, 35, 101, 81, 110, 81, 65, 98, 63, 93, 18, 83, 95, 87, 76, 54, 35, 113, 81, 42, 97, 96, 27, 71, 62, 48, 26, 38, 33, 36, 9, 76, 97, 76, 57, 56, 70, 10, 24, 64, 48, 35, 44, 25, 39, 78, 33, 49, 40, 64, 29, 21, 19, 39, 35, 63, 85, 69, 78, 44, 100, 44, 86, 18, 60, 6, 87, 54, 76, 67, 68, 90, 100, 48, 66, 40, 39, 26, 53, 106, 41, 72, 98, 78, 75, 61, 57, 49, 79, 95, 29, 101, 23, 30, 80, 69, 84, 29, 58, 98, 96, 32, 93, 95, 31, 48, 70, 19, 17, 33, 27, 87, 77
              |58, 73, 23, 62, 15, 53, 30, 33, 92, 13, 47, 71, 29, 95, 42, 13, 89, 22, 54, 78, 86, 44, 83, 101, 71, 41, 13, 15, 64, 79, 7, 89, 42, 60, 7, 56, 34, 33, 59, 38, 50, 40, 38, 43, 61, 32, 67, 33, 64, 96, 91, 43, 19, 73, 61, 31, 82, 25, 43, 87, 35, 53, 76, 22, 68, 46, 95, 37, 9, 53, 75, 21, 60, 28, 67, 54, 39, 62, 77, 90, 81, 15, 45, 46, 34, 45, 50, 96, 69, 38, 40, 30, 14, 84, 37, 44, 39, 92, 24, 57, 38, 41, 71, 64, 35, 25, 75, 15, 52, 103, 66, 89, 62, 68, 58, 79, 91, 88, 40, 27, 28, 44, 64, 70, 96, 91, 37, 49, 86, 65, 68, 75, 16, 84, 59, 60, 57, 70, 74, 74, 55, 108, 97, 9, 57, 36, 59, 9, 56, 41, 96, 35, 93, 32, 61, 33, 29, 26, 42, 12, 59, 52, 77, 54, 71, 43, 22, 80, 68, 13, 16, 28, 32, 81, 52, 35, 57, 82, 23, 93, 95, 30, 66, 55, 65, 35, 11, 42, 89, 35, 35, 65, 60, 73, 97, 79, 104, 87, 47, 20
              |21, 69, 46, 17, 52, 84, 73, 91, 115, 62, 31, 65, 34, 71, 93, 59, 67, 50, 18, 93, 78, 79, 54, 63, 71, 84, 57, 54, 89, 108, 56, 67, 74, 10, 66, 9, 73, 95, 11, 82, 17, 24, 67, 94, 46, 55, 81, 86, 98, 75, 71, 89, 46, 88, 42, 93, 84, 46, 40, 47, 31, 35, 50, 41, 68, 17, 118, 33, 55, 67, 85, 49, 32, 91, 45, 95, 38, 12, 105, 100, 57, 77, 69, 33, 66, 28, 79, 121, 46, 97, 89, 93, 63, 113, 95, 28, 29, 67, 39, 17, 90, 86, 27, 75, 97, 38, 93, 77, 22, 71, 104, 115, 32, 60, 69, 90, 101, 80, 23, 42, 36, 72, 24, 106, 75, 63, 34, 68, 97, 36, 64, 42, 53, 94, 32, 75, 17, 52, 60, 66, 58, 72, 121, 57, 95, 83, 78, 61, 74, 92, 70, 61, 76, 86, 89, 30, 44, 60, 95, 59, 33, 17, 93, 56, 73, 43, 84, 96, 106, 75, 50, 73, 54, 107, 74, 83, 17, 90, 85, 65, 61, 33, 102, 9, 60, 49, 57, 98, 98, 91, 92, 72, 83, 108, 70, 76, 68, 93, 98, 65
              |84, 62, 53, 75, 46, 28, 12, 13, 65, 22, 75, 62, 52, 90, 12, 25, 83, 32, 68, 56, 74, 20, 82, 101, 59, 13, 27, 46, 40, 51, 36, 83, 22, 76, 36, 74, 14, 25, 82, 10, 66, 64, 24, 13, 61, 30, 48, 4, 36, 89, 84, 13, 48, 52, 63, 26, 66, 36, 48, 91, 61, 58, 76, 44, 57, 68, 67, 50, 39, 40, 56, 51, 67, 30, 67, 24, 47, 77, 49, 69, 79, 30, 29, 54, 22, 56, 28, 67, 70, 19, 9, 28, 21, 55, 16, 56, 66, 87, 47, 82, 8, 11, 80, 48, 30, 47, 53, 21, 78, 100, 36, 61, 69, 61, 44, 59, 69, 75, 59, 56, 47, 25, 74, 40, 88, 89, 49, 35, 64, 69, 59, 78, 30, 64, 65, 43, 70, 67, 69, 65, 48, 107, 69, 30, 27, 6, 40, 40, 39, 11, 91, 26, 85, 5, 36, 53, 38, 23, 13, 43, 66, 67, 55, 48, 57, 46, 27, 58, 38, 24, 33, 9, 31, 54, 34, 5, 82, 63, 21, 90, 94, 51, 36, 77, 57, 37, 42, 17, 69, 11, 13, 51, 38, 43, 92, 66, 102, 68, 17, 17
              |28, 71, 12, 39, 17, 69, 50, 62, 106, 34, 19, 68, 7, 86, 68, 31, 80, 28, 32, 87, 84, 61, 71, 85, 71, 62, 30, 19, 77, 95, 23, 80, 57, 35, 32, 30, 52, 63, 30, 60, 27, 11, 50, 69, 52, 38, 74, 59, 82, 88, 83, 66, 12, 81, 50, 61, 85, 26, 36, 70, 5, 40, 64, 13, 68, 18, 109, 23, 21, 59, 81, 14, 44, 58, 55, 75, 31, 38, 92, 97, 71, 44, 56, 33, 47, 28, 64, 111, 58, 68, 64, 60, 35, 100, 66, 27, 9, 82, 9, 27, 64, 64, 51, 69, 64, 11, 85, 45, 22, 91, 86, 104, 46, 64, 63, 86, 98, 86, 16, 9, 14, 57, 44, 89, 88, 80, 25, 57, 93, 49, 66, 59, 26, 91, 43, 67, 34, 61, 68, 71, 54, 94, 111, 27, 76, 59, 68, 27, 64, 67, 86, 45, 87, 59, 75, 13, 27, 38, 69, 24, 44, 30, 86, 53, 72, 37, 51, 90, 88, 43, 23, 49, 37, 95, 62, 59, 27, 87, 53, 82, 81, 9, 85, 26, 62, 36, 22, 70, 95, 63, 63, 68, 72, 92, 86, 79, 89, 92, 73, 39
              |108, 47, 86, 86, 79, 16, 37, 48, 26, 55, 103, 50, 78, 76, 34, 56, 70, 57, 82, 25, 55, 24, 76, 92, 43, 26, 57, 80, 13, 12, 70, 70, 28, 91, 73, 91, 33, 60, 104, 29, 82, 89, 34, 34, 60, 47, 27, 39, 3, 73, 68, 27, 80, 24, 65, 62, 41, 59, 59, 88, 88, 66, 71, 71, 44, 90, 28, 68, 73, 34, 31, 84, 73, 68, 66, 16, 61, 90, 10, 37, 71, 69, 30, 66, 37, 71, 21, 29, 68, 50, 31, 65, 53, 17, 47, 72, 93, 74, 75, 105, 37, 27, 86, 31, 66, 74, 21, 60, 103, 87, 9, 22, 75, 52, 34, 31, 36, 54, 81, 87, 71, 28, 82, 8, 71, 78, 66, 32, 32, 73, 47, 77, 59, 33, 72, 28, 84, 62, 59, 52, 45, 95, 30, 62, 12, 33, 24, 76, 27, 34, 77, 40, 67, 41, 11, 76, 58, 46, 37, 79, 72, 82, 23, 47, 40, 56, 66, 25, 10, 62, 62, 39, 48, 15, 25, 34, 105, 35, 59, 79, 85, 77, 6, 97, 49, 51, 78, 44, 37, 44, 46, 36, 18, 9, 78, 47, 92, 39, 32, 48
              |44, 65, 16, 46, 12, 55, 35, 46, 93, 18, 35, 62, 13, 84, 52, 16, 78, 15, 39, 76, 78, 47, 71, 87, 64, 47, 14, 14, 64, 82, 9, 78, 43, 44, 21, 40, 37, 48, 44, 44, 34, 25, 37, 53, 49, 26, 64, 44, 68, 86, 80, 51, 10, 70, 49, 47, 77, 15, 31, 73, 21, 39, 64, 6, 61, 30, 96, 22, 10, 49, 71, 15, 46, 44, 54, 60, 27, 46, 79, 87, 70, 31, 43, 32, 34, 30, 50, 98, 57, 52, 49, 46, 20, 87, 50, 29, 25, 80, 8, 42, 48, 48, 56, 60, 50, 9, 74, 30, 38, 91, 71, 91, 48, 58, 53, 76, 88, 80, 24, 17, 12, 44, 49, 75, 85, 79, 23, 46, 83, 51, 60, 61, 11, 81, 45, 57, 41, 59, 64, 65, 47, 95, 98, 11, 62, 43, 57, 17, 53, 51, 85, 32, 84, 43, 62, 17, 18, 24, 53, 17, 45, 37, 75, 46, 64, 32, 38, 79, 74, 29, 9, 34, 26, 82, 51, 43, 42, 78, 38, 81, 82, 14, 71, 39, 56, 27, 14, 54, 86, 47, 48, 60, 59, 78, 85, 72, 91, 83, 57, 24
              |106, 26, 93, 76, 89, 32, 52, 72, 26, 67, 105, 30, 80, 49, 60, 68, 45, 63, 74, 5, 27, 40, 54, 68, 22, 47, 68, 90, 20, 26, 80, 45, 39, 82, 87, 84, 48, 84, 99, 50, 76, 89, 42, 60, 47, 51, 14, 62, 32, 46, 42, 51, 87, 8, 51, 85, 13, 63, 54, 68, 91, 57, 52, 75, 25, 87, 28, 67, 84, 29, 7, 92, 61, 90, 50, 43, 59, 81, 25, 10, 49, 87, 35, 60, 46, 66, 32, 33, 51, 76, 55, 88, 66, 30, 72, 67, 95, 49, 79, 102, 61, 50, 72, 18, 90, 77, 8, 78, 102, 61, 38, 28, 62, 34, 25, 2, 10, 26, 79, 93, 73, 37, 70, 37, 44, 54, 64, 32, 5, 59, 29, 59, 68, 4, 61, 21, 75, 44, 38, 30, 35, 69, 31, 73, 39, 54, 21, 89, 25, 59, 51, 46, 40, 64, 25, 76, 61, 55, 63, 90, 60, 75, 6, 37, 20, 52, 86, 6, 39, 80, 69, 55, 52, 23, 28, 55, 102, 5, 80, 54, 61, 79, 36, 93, 32, 51, 89, 70, 9, 68, 70, 21, 21, 36, 52, 21, 66, 9, 59, 61
              |81, 58, 51, 71, 44, 26, 7, 18, 64, 19, 72, 57, 49, 86, 15, 22, 79, 28, 64, 53, 70, 17, 78, 97, 55, 12, 24, 45, 38, 50, 34, 79, 19, 72, 35, 70, 10, 28, 79, 9, 62, 61, 20, 16, 56, 26, 45, 9, 35, 85, 79, 13, 46, 49, 59, 29, 62, 32, 44, 86, 58, 54, 71, 40, 53, 64, 66, 46, 37, 36, 53, 49, 62, 33, 63, 24, 43, 73, 48, 67, 75, 31, 25, 50, 17, 52, 25, 67, 66, 24, 11, 31, 18, 55, 20, 52, 63, 83, 44, 78, 12, 11, 76, 44, 34, 44, 50, 22, 75, 96, 36, 60, 65, 57, 40, 56, 66, 71, 56, 54, 43, 21, 70, 40, 84, 84, 45, 31, 62, 65, 55, 73, 27, 61, 61, 39, 66, 63, 64, 61, 43, 102, 68, 27, 27, 6, 37, 39, 35, 14, 87, 22, 81, 9, 34, 49, 34, 19, 17, 42, 61, 63, 52, 44, 53, 41, 29, 55, 38, 25, 30, 5, 27, 52, 30, 6, 78, 60, 24, 86, 90, 48, 36, 73, 53, 32, 41, 21, 66, 15, 17, 48, 36, 43, 88, 62, 98, 65, 20, 14
              |27, 59, 34, 17, 38, 68, 56, 74, 101, 45, 29, 55, 19, 67, 76, 42, 62, 33, 10, 80, 69, 63, 51, 64, 60, 67, 40, 40, 74, 93, 40, 62, 57, 13, 51, 9, 57, 78, 20, 65, 5, 14, 51, 77, 36, 38, 67, 69, 82, 70, 66, 72, 33, 74, 33, 77, 74, 29, 25, 48, 21, 24, 45, 25, 57, 8, 104, 16, 40, 52, 72, 36, 25, 75, 38, 78, 22, 16, 90, 88, 52, 62, 54, 19, 49, 13, 63, 107, 39, 81, 72, 77, 46, 98, 78, 13, 21, 63, 23, 23, 73, 69, 29, 62, 81, 22, 79, 60, 23, 71, 88, 100, 26, 50, 55, 77, 89, 72, 7, 31, 20, 56, 22, 90, 70, 60, 17, 52, 85, 30, 54, 39, 36, 82, 24, 61, 12, 44, 52, 56, 45, 73, 107, 41, 79, 66, 63, 47, 59, 75, 67, 45, 70, 69, 73, 14, 27, 43, 78, 45, 25, 8, 80, 43, 61, 28, 68, 83, 90, 59, 34, 56, 37, 92, 59, 66, 23, 78, 68, 62, 61, 17, 86, 14, 49, 33, 43, 81, 86, 74, 75, 59, 68, 93, 67, 66, 69, 82, 81, 48
              |61, 24, 61, 28, 60, 49, 49, 74, 72, 51, 64, 20, 44, 35, 69, 49, 30, 38, 27, 50, 34, 48, 23, 41, 26, 56, 48, 63, 49, 67, 56, 30, 42, 35, 67, 37, 47, 82, 53, 56, 31, 48, 38, 70, 1, 32, 38, 65, 61, 37, 32, 62, 56, 45, 3, 82, 40, 35, 17, 30, 52, 11, 16, 43, 23, 43, 75, 28, 58, 28, 41, 61, 13, 83, 6, 63, 22, 33, 65, 55, 21, 74, 36, 18, 39, 23, 44, 79, 9, 80, 63, 83, 51, 73, 77, 24, 55, 32, 46, 57, 68, 59, 25, 32, 87, 44, 50, 68, 58, 43, 68, 73, 14, 15, 28, 46, 57, 37, 37, 59, 39, 40, 22, 69, 37, 31, 26, 31, 53, 11, 20, 17, 45, 50, 13, 34, 28, 10, 17, 21, 17, 48, 78, 52, 61, 58, 38, 65, 34, 68, 36, 34, 36, 66, 50, 38, 32, 40, 72, 65, 12, 29, 50, 15, 28, 18, 77, 52, 70, 68, 44, 52, 31, 65, 37, 60, 57, 45, 74, 33, 35, 42, 66, 47, 16, 26, 63, 77, 53, 72, 74, 28, 44, 71, 36, 32, 43, 48, 72, 49
              |71, 25, 57, 46, 53, 26, 28, 52, 57, 35, 69, 24, 44, 51, 46, 35, 45, 27, 42, 36, 39, 25, 44, 62, 23, 32, 34, 55, 29, 48, 46, 45, 19, 51, 55, 51, 25, 62, 65, 33, 43, 53, 15, 47, 23, 16, 23, 43, 39, 51, 45, 39, 51, 30, 26, 63, 35, 27, 19, 53, 54, 26, 37, 39, 21, 52, 59, 30, 49, 8, 30, 56, 33, 65, 29, 39, 23, 50, 45, 46, 40, 58, 12, 26, 18, 32, 21, 62, 32, 58, 40, 64, 35, 54, 55, 32, 58, 48, 43, 67, 45, 36, 47, 18, 68, 41, 35, 51, 66, 61, 46, 56, 35, 22, 12, 35, 47, 40, 43, 57, 37, 16, 43, 48, 50, 50, 28, 8, 42, 34, 21, 41, 33, 40, 32, 16, 43, 28, 30, 27, 8, 67, 62, 39, 38, 36, 18, 55, 14, 45, 52, 14, 47, 44, 29, 40, 24, 22, 49, 56, 32, 42, 36, 9, 23, 16, 60, 39, 48, 51, 34, 30, 16, 47, 15, 37, 67, 37, 55, 51, 55, 42, 44, 58, 19, 15, 54, 55, 45, 50, 52, 18, 23, 49, 53, 31, 63, 41, 48, 31
              |88, 90, 52, 91, 44, 57, 38, 18, 92, 34, 76, 89, 60, 116, 32, 36, 110, 48, 84, 85, 102, 49, 107, 125, 87, 42, 38, 43, 69, 78, 38, 110, 51, 90, 29, 86, 42, 7, 90, 39, 80, 71, 51, 32, 84, 52, 77, 27, 63, 116, 110, 39, 49, 81, 86, 4, 95, 52, 68, 113, 65, 79, 100, 52, 85, 77, 94, 65, 39, 68, 85, 49, 87, 4, 91, 50, 65, 92, 76, 98, 104, 17, 57, 73, 48, 73, 57, 94, 93, 17, 35, 1, 34, 81, 20, 72, 69, 113, 55, 87, 29, 39, 99, 77, 4, 55, 82, 17, 82, 125, 61, 87, 89, 87, 72, 88, 98, 103, 70, 56, 58, 54, 92, 65, 115, 114, 65, 63, 93, 91, 86, 100, 42, 93, 85, 72, 86, 92, 95, 92, 74, 132, 95, 37, 54, 35, 69, 35, 68, 32, 117, 51, 112, 25, 65, 63, 55, 45, 29, 38, 86, 82, 84, 74, 85, 67, 9, 86, 63, 18, 44, 35, 53, 81, 63, 34, 87, 92, 10, 116, 119, 60, 62, 86, 84, 58, 39, 24, 98, 22, 20, 80, 67, 69, 118, 94, 127, 97, 36, 35
              |43, 48, 32, 29, 32, 49, 36, 56, 84, 28, 40, 44, 16, 64, 57, 25, 58, 15, 23, 64, 60, 43, 51, 67, 48, 47, 24, 34, 56, 75, 29, 58, 38, 30, 40, 28, 37, 62, 39, 46, 20, 25, 31, 58, 30, 18, 51, 50, 63, 66, 61, 53, 27, 58, 29, 61, 61, 10, 12, 53, 26, 19, 43, 15, 44, 25, 87, 4, 30, 36, 58, 32, 26, 60, 34, 59, 7, 31, 72, 74, 50, 48, 35, 12, 30, 11, 44, 90, 37, 63, 52, 61, 29, 80, 60, 11, 30, 60, 17, 40, 54, 50, 37, 46, 65, 15, 63, 45, 38, 71, 68, 83, 28, 40, 39, 63, 75, 62, 16, 31, 10, 37, 31, 71, 66, 59, 4, 35, 70, 31, 43, 41, 20, 68, 25, 44, 25, 39, 45, 47, 31, 75, 90, 26, 59, 46, 46, 37, 42, 56, 65, 25, 64, 50, 55, 12, 8, 23, 59, 37, 26, 21, 64, 29, 48, 13, 54, 67, 71, 44, 18, 37, 17, 74, 41, 47, 40, 64, 52, 61, 62, 15, 67, 33, 38, 14, 34, 62, 72, 56, 57, 45, 50, 74, 65, 55, 71, 68, 61, 29
              |86, 32, 93, 49, 94, 72, 79, 104, 79, 84, 92, 30, 76, 6, 97, 82, 9, 72, 53, 58, 27, 74, 12, 14, 36, 83, 81, 96, 66, 80, 90, 9, 69, 57, 101, 61, 77, 114, 76, 84, 58, 77, 67, 98, 33, 64, 52, 94, 80, 11, 12, 89, 89, 56, 33, 114, 41, 69, 51, 21, 83, 43, 19, 77, 36, 71, 81, 61, 92, 52, 49, 94, 38, 116, 28, 86, 56, 54, 78, 56, 13, 107, 62, 50, 69, 54, 68, 86, 25, 110, 91, 116, 84, 84, 106, 55, 84, 5, 78, 82, 96, 86, 38, 48, 119, 77, 61, 101, 84, 9, 87, 82, 37, 30, 48, 52, 58, 29, 68, 91, 71, 67, 42, 87, 13, 3, 59, 57, 56, 33, 33, 24, 78, 53, 39, 53, 52, 24, 22, 27, 43, 16, 84, 85, 83, 87, 57, 99, 55, 96, 5, 65, 16, 96, 69, 70, 65, 72, 100, 99, 38, 55, 59, 42, 39, 51, 110, 60, 89, 101, 78, 82, 64, 76, 60, 88, 82, 49, 106, 1, 8, 74, 85, 71, 34, 59, 96, 106, 53, 101, 103, 43, 62, 87, 4, 33, 13, 48, 98, 81
              |44, 47, 33, 29, 33, 49, 36, 57, 83, 29, 41, 43, 17, 63, 57, 26, 57, 15, 22, 63, 59, 43, 50, 67, 47, 47, 24, 35, 55, 74, 29, 57, 38, 30, 41, 28, 37, 62, 39, 46, 20, 26, 31, 58, 29, 18, 50, 50, 63, 65, 60, 53, 28, 57, 28, 61, 60, 11, 11, 52, 27, 18, 43, 16, 43, 25, 86, 4, 31, 35, 57, 33, 25, 61, 33, 58, 6, 31, 71, 73, 49, 49, 34, 11, 29, 11, 44, 89, 36, 63, 52, 62, 29, 80, 60, 10, 31, 59, 18, 41, 54, 50, 37, 45, 66, 16, 62, 45, 39, 70, 68, 82, 28, 39, 39, 62, 74, 61, 16, 32, 11, 37, 30, 71, 65, 58, 3, 34, 69, 30, 42, 40, 20, 67, 24, 44, 25, 38, 44, 46, 30, 74, 89, 26, 59, 46, 45, 38, 41, 56, 64, 25, 63, 50, 54, 13, 8, 23, 59, 38, 25, 21, 63, 28, 47, 12, 54, 66, 70, 45, 18, 37, 17, 74, 40, 47, 41, 63, 53, 60, 61, 16, 67, 33, 37, 14, 35, 63, 71, 56, 57, 44, 50, 73, 64, 54, 70, 67, 61, 30
              |78, 52, 51, 66, 44, 22, 2, 23, 61, 19, 71, 52, 47, 80, 19, 21, 74, 25, 60, 49, 65, 13, 72, 91, 49, 11, 23, 45, 34, 48, 34, 74, 14, 68, 37, 66, 4, 34, 76, 8, 58, 59, 14, 20, 51, 21, 40, 14, 33, 80, 74, 15, 45, 44, 53, 34, 57, 29, 39, 81, 56, 49, 66, 38, 47, 61, 64, 42, 38, 30, 48, 49, 57, 38, 57, 23, 38, 69, 45, 62, 69, 35, 20, 45, 12, 48, 20, 64, 60, 29, 14, 37, 18, 53, 26, 48, 61, 77, 43, 76, 17, 12, 71, 39, 39, 42, 46, 26, 72, 90, 35, 57, 59, 51, 35, 52, 62, 66, 53, 53, 40, 16, 65, 39, 78, 79, 41, 25, 57, 60, 49, 68, 25, 56, 56, 34, 62, 57, 59, 55, 38, 97, 66, 27, 26, 8, 32, 41, 30, 18, 81, 17, 75, 15, 30, 46, 30, 15, 22, 43, 56, 59, 48, 38, 48, 36, 34, 51, 38, 28, 28, 3, 22, 50, 25, 9, 76, 55, 28, 80, 84, 46, 35, 70, 47, 27, 42, 26, 61, 21, 23, 42, 31, 42, 82, 57, 92, 60, 23, 13
              |76, 44, 89, 41, 91, 81, 85, 110, 94, 86, 84, 41, 72, 23, 104, 84, 24, 73, 46, 72, 42, 82, 15, 8, 48, 90, 83, 94, 78, 93, 89, 24, 77, 47, 101, 53, 83, 118, 66, 91, 52, 71, 73, 105, 36, 68, 64, 100, 91, 28, 28, 97, 86, 69, 34, 118, 56, 69, 52, 8, 77, 42, 21, 75, 47, 64, 96, 59, 91, 60, 63, 91, 35, 119, 29, 96, 55, 44, 91, 71, 20, 108, 70, 49, 75, 51, 77, 101, 27, 116, 98, 119, 86, 98, 112, 52, 78, 21, 76, 72, 103, 94, 28, 60, 123, 74, 74, 103, 75, 18, 99, 96, 33, 39, 58, 66, 73, 45, 62, 87, 69, 74, 34, 99, 30, 15, 57, 65, 71, 30, 44, 20, 79, 68, 36, 63, 45, 30, 32, 39, 50, 17, 99, 86, 93, 94, 67, 98, 65, 103, 21, 70, 33, 102, 80, 66, 66, 75, 107, 97, 35, 48, 73, 49, 51, 53, 112, 74, 100, 103, 78, 87, 67, 90, 69, 95, 72, 64, 110, 16, 9, 71, 97, 62, 42, 62, 95, 113, 69, 107, 109, 55, 73, 100, 21, 47, 13, 64, 107, 85
              |74, 44, 50, 59, 44, 20, 7, 32, 59, 21, 68, 44, 43, 72, 27, 22, 65, 21, 53, 44, 57, 12, 64, 82, 42, 15, 22, 46, 31, 47, 35, 65, 9, 61, 40, 60, 5, 42, 71, 14, 52, 55, 6, 28, 42, 14, 34, 22, 33, 71, 65, 21, 44, 39, 45, 42, 50, 24, 31, 72, 53, 41, 57, 35, 39, 56, 62, 36, 38, 22, 42, 49, 49, 46, 49, 26, 31, 62, 44, 57, 60, 40, 12, 38, 3, 41, 16, 63, 51, 38, 21, 44, 19, 52, 34, 41, 58, 69, 40, 72, 25, 18, 63, 32, 47, 38, 42, 32, 69, 81, 37, 56, 51, 42, 27, 46, 57, 58, 48, 52, 36, 10, 57, 40, 70, 70, 35, 17, 52, 52, 41, 60, 24, 51, 48, 27, 55, 49, 50, 47, 29, 88, 64, 27, 27, 16, 26, 43, 23, 26, 73, 8, 67, 24, 28, 42, 25, 11, 30, 45, 48, 52, 43, 30, 40, 28, 40, 47, 39, 34, 26, 10, 15, 48, 19, 17, 72, 49, 36, 72, 76, 42, 36, 65, 39, 20, 43, 35, 56, 29, 31, 35, 26, 43, 74, 49, 84, 54, 30, 14
              |110, 26, 99, 78, 96, 40, 61, 81, 29, 75, 110, 30, 86, 45, 68, 75, 42, 69, 77, 14, 23, 49, 52, 64, 24, 56, 75, 97, 29, 33, 88, 42, 47, 85, 95, 87, 57, 93, 103, 59, 80, 94, 50, 69, 49, 58, 21, 71, 40, 41, 38, 60, 94, 17, 53, 94, 11, 69, 59, 66, 96, 60, 51, 82, 27, 91, 31, 72, 91, 36, 13, 99, 63, 99, 51, 52, 64, 83, 32, 5, 47, 95, 43, 64, 54, 70, 41, 36, 52, 85, 64, 97, 74, 36, 81, 71, 100, 45, 85, 106, 70, 59, 73, 25, 99, 83, 17, 87, 106, 56, 47, 33, 64, 35, 31, 9, 7, 21, 84, 100, 79, 45, 72, 45, 39, 51, 69, 39, 7, 60, 30, 59, 75, 5, 63, 28, 78, 44, 37, 30, 39, 64, 34, 80, 48, 63, 29, 96, 32, 68, 47, 53, 35, 72, 34, 81, 67, 62, 72, 98, 62, 78, 15, 41, 22, 57, 95, 13, 47, 88, 76, 64, 58, 29, 36, 64, 106, 6, 89, 50, 58, 84, 45, 96, 35, 58, 96, 79, 3, 77, 79, 25, 30, 44, 48, 20, 62, 2, 68, 69
              |83, 73, 49, 79, 41, 40, 22, 7, 77, 22, 73, 72, 52, 100, 18, 25, 94, 35, 73, 68, 86, 32, 91, 110, 70, 25, 27, 41, 52, 63, 32, 94, 34, 80, 29, 77, 25, 13, 83, 22, 69, 64, 34, 19, 69, 37, 60, 11, 47, 100, 94, 23, 45, 64, 71, 14, 78, 40, 55, 99, 60, 65, 85, 44, 68, 69, 79, 54, 35, 51, 68, 47, 73, 18, 76, 35, 52, 81, 60, 81, 88, 20, 40, 60, 31, 61, 40, 79, 78, 13, 19, 16, 21, 66, 11, 61, 64, 97, 47, 81, 14, 23, 86, 60, 19, 47, 65, 12, 77, 110, 47, 72, 76, 71, 56, 71, 81, 86, 61, 53, 48, 37, 80, 51, 99, 98, 53, 46, 76, 77, 69, 86, 31, 76, 72, 55, 75, 76, 79, 76, 57, 116, 80, 28, 38, 18, 52, 34, 51, 18, 101, 35, 95, 9, 48, 54, 42, 30, 17, 37, 72, 71, 67, 58, 68, 52, 15, 70, 48, 15, 34, 19, 38, 65, 46, 17, 81, 75, 9, 100, 103, 52, 47, 78, 67, 44, 37, 16, 81, 9, 9, 63, 50, 54, 102, 77, 112, 80, 23, 21
              |42, 81, 5, 55, 5, 69, 48, 53, 108, 30, 29, 78, 21, 99, 62, 28, 93, 31, 49, 92, 94, 61, 85, 101, 80, 60, 27, 4, 80, 96, 15, 93, 58, 52, 18, 47, 51, 51, 45, 57, 43, 27, 52, 62, 64, 42, 80, 53, 82, 101, 96, 62, 7, 86, 63, 49, 93, 31, 47, 85, 21, 53, 78, 20, 77, 35, 111, 36, 11, 65, 87, 3, 59, 44, 69, 72, 42, 54, 93, 103, 84, 30, 59, 46, 49, 43, 65, 113, 71, 58, 60, 47, 31, 101, 57, 42, 23, 95, 18, 41, 57, 60, 67, 76, 51, 20, 90, 34, 36, 105, 85, 105, 61, 74, 69, 92, 104, 96, 32, 9, 25, 59, 60, 88, 101, 94, 37, 61, 99, 64, 76, 74, 26, 97, 58, 73, 51, 74, 80, 81, 63, 109, 113, 22, 75, 54, 73, 12, 69, 61, 99, 48, 99, 52, 77, 27, 34, 39, 62, 9, 59, 46, 91, 62, 80, 47, 38, 94, 87, 32, 24, 46, 42, 97, 66, 54, 41, 94, 41, 96, 96, 23, 84, 43, 72, 43, 9, 61, 102, 55, 55, 76, 75, 91, 100, 88, 104, 99, 67, 36
              |94, 10, 89, 60, 87, 46, 60, 83, 49, 70, 96, 13, 74, 25, 74, 70, 21, 61, 60, 28, 4, 51, 31, 44, 12, 60, 69, 89, 38, 50, 81, 21, 48, 67, 90, 70, 56, 95, 86, 61, 64, 80, 47, 74, 31, 51, 24, 73, 52, 22, 18, 65, 84, 27, 35, 95, 11, 60, 46, 45, 83, 43, 30, 71, 14, 76, 51, 58, 83, 31, 20, 89, 45, 99, 32, 60, 51, 65, 48, 27, 26, 93, 41, 49, 51, 55, 44, 56, 32, 89, 68, 98, 70, 54, 85, 56, 86, 25, 74, 90, 74, 63, 53, 23, 100, 72, 31, 85, 90, 37, 59, 52, 45, 18, 26, 22, 28, 5, 69, 89, 67, 45, 53, 58, 21, 30, 56, 36, 26, 41, 15, 39, 68, 23, 45, 28, 60, 25, 17, 11, 28, 45, 55, 74, 57, 65, 31, 90, 31, 73, 27, 48, 17, 75, 42, 68, 57, 57, 77, 90, 44, 61, 29, 29, 13, 44, 94, 30, 60, 86, 68, 63, 51, 46, 36, 67, 90, 19, 89, 30, 37, 72, 57, 80, 19, 48, 88, 84, 24, 80, 82, 19, 36, 58, 28, 4, 42, 19, 74, 65
              |51, 51, 29, 41, 26, 43, 26, 45, 80, 17, 45, 48, 19, 72, 46, 14, 66, 3, 34, 62, 64, 36, 59, 77, 50, 38, 12, 28, 52, 69, 20, 66, 31, 41, 30, 39, 28, 50, 48, 36, 31, 31, 25, 47, 37, 13, 50, 39, 57, 73, 67, 43, 24, 56, 37, 49, 63, 1, 19, 64, 30, 29, 52, 12, 47, 33, 83, 16, 22, 34, 57, 29, 37, 49, 43, 50, 16, 43, 67, 73, 58, 37, 30, 23, 22, 23, 38, 85, 45, 51, 42, 50, 17, 75, 49, 22, 34, 68, 16, 48, 43, 40, 49, 46, 54, 15, 60, 33, 45, 79, 61, 78, 39, 45, 39, 62, 74, 66, 25, 30, 13, 31, 42, 64, 72, 68, 15, 32, 69, 41, 46, 51, 8, 67, 35, 43, 36, 46, 51, 52, 33, 84, 86, 15, 51, 36, 43, 29, 39, 45, 72, 19, 70, 39, 50, 18, 5, 13, 48, 29, 36, 33, 62, 32, 50, 19, 42, 65, 63, 33, 8, 26, 12, 70, 37, 37, 48, 64, 41, 69, 71, 18, 60, 42, 42, 13, 27, 51, 72, 44, 45, 46, 46, 67, 73, 58, 80, 69, 51, 18
              |26, 63, 25, 26, 29, 67, 52, 68, 102, 39, 24, 59, 10, 74, 71, 36, 69, 28, 19, 81, 74, 60, 59, 73, 63, 63, 34, 31, 74, 92, 32, 69, 55, 22, 42, 17, 53, 71, 23, 61, 14, 8, 49, 72, 42, 36, 69, 64, 81, 77, 72, 68, 23, 76, 39, 69, 77, 25, 27, 57, 12, 29, 52, 17, 60, 8, 105, 15, 31, 53, 75, 27, 32, 67, 44, 75, 23, 25, 89, 91, 59, 53, 53, 23, 47, 17, 62, 107, 46, 74, 67, 69, 40, 98, 72, 16, 14, 70, 15, 23, 68, 65, 38, 63, 73, 14, 80, 53, 21, 78, 86, 100, 34, 54, 57, 80, 92, 77, 3, 22, 13, 55, 31, 89, 77, 68, 17, 52, 87, 37, 58, 47, 30, 84, 31, 62, 21, 50, 58, 61, 47, 81, 107, 33, 76, 61, 64, 38, 59, 70, 74, 43, 76, 63, 72, 7, 24, 39, 73, 36, 32, 17, 81, 45, 64, 30, 60, 84, 88, 51, 27, 52, 35, 92, 59, 62, 23, 81, 61, 70, 69, 9, 84, 17, 53, 32, 34, 75, 89, 68, 69, 61, 68, 91, 74, 70, 77, 85, 76, 43
              |74, 15, 64, 44, 62, 33, 38, 63, 56, 46, 73, 13, 50, 40, 56, 45, 34, 36, 42, 33, 28, 34, 34, 52, 14, 42, 44, 64, 32, 50, 55, 34, 28, 50, 65, 52, 35, 73, 67, 42, 44, 57, 25, 57, 16, 26, 21, 53, 44, 40, 34, 48, 59, 28, 21, 73, 28, 35, 22, 45, 60, 24, 28, 46, 11, 55, 59, 35, 58, 11, 25, 64, 30, 76, 22, 47, 27, 49, 47, 41, 30, 69, 21, 28, 28, 34, 28, 62, 24, 69, 50, 75, 45, 55, 65, 34, 63, 37, 50, 70, 55, 45, 42, 15, 78, 48, 33, 61, 69, 50, 51, 56, 31, 11, 10, 30, 42, 30, 47, 64, 43, 26, 39, 52, 39, 39, 33, 16, 38, 29, 10, 33, 43, 35, 29, 16, 43, 19, 19, 17, 3, 57, 62, 49, 45, 46, 20, 65, 17, 55, 42, 25, 36, 54, 33, 45, 32, 33, 59, 65, 29, 42, 34, 4, 15, 20, 70, 36, 53, 62, 43, 41, 26, 48, 20, 47, 70, 31, 66, 41, 45, 48, 49, 60, 8, 23, 63, 65, 39, 60, 62, 12, 26, 53, 42, 22, 53, 35, 58, 42
              |11, 74, 32, 27, 39, 82, 67, 82, 116, 53, 17, 70, 23, 81, 86, 50, 76, 43, 24, 95, 84, 76, 64, 76, 75, 79, 49, 40, 88, 107, 44, 76, 70, 20, 54, 15, 68, 84, 8, 77, 19, 11, 64, 87, 51, 51, 82, 78, 96, 84, 80, 83, 33, 89, 48, 82, 89, 40, 40, 59, 17, 39, 59, 31, 72, 8, 119, 29, 43, 67, 88, 35, 39, 79, 52, 90, 37, 23, 104, 103, 66, 65, 67, 34, 62, 29, 77, 122, 54, 88, 82, 82, 55, 113, 86, 28, 14, 77, 28, 8, 83, 81, 39, 77, 86, 28, 94, 66, 8, 83, 101, 115, 40, 65, 70, 93, 104, 87, 17, 28, 28, 70, 34, 104, 85, 73, 31, 67, 100, 44, 69, 52, 45, 97, 39, 76, 24, 59, 67, 72, 60, 84, 122, 47, 91, 76, 78, 48, 74, 85, 80, 58, 84, 78, 87, 22, 39, 54, 88, 46, 40, 22, 95, 58, 77, 43, 73, 98, 103, 64, 42, 67, 50, 106, 73, 77, 8, 93, 74, 75, 73, 23, 99, 6, 64, 47, 44, 90, 101, 83, 83, 74, 82, 106, 80, 81, 80, 97, 91, 57
              |46, 51, 28, 36, 26, 47, 31, 50, 83, 21, 41, 48, 16, 70, 51, 18, 64, 8, 29, 64, 64, 40, 57, 74, 50, 43, 17, 28, 55, 73, 22, 64, 35, 36, 33, 34, 32, 55, 43, 41, 26, 27, 28, 52, 35, 16, 52, 44, 61, 72, 66, 48, 23, 59, 35, 54, 63, 4, 17, 60, 26, 26, 50, 10, 47, 28, 86, 11, 24, 36, 59, 28, 33, 53, 40, 55, 13, 38, 70, 75, 56, 41, 33, 19, 26, 18, 42, 89, 43, 56, 47, 54, 22, 78, 53, 18, 30, 66, 14, 43, 48, 45, 45, 47, 58, 12, 63, 38, 40, 77, 65, 81, 35, 44, 40, 64, 76, 66, 20, 28, 8, 35, 38, 68, 71, 65, 11, 34, 71, 38, 46, 48, 13, 69, 32, 45, 32, 44, 50, 51, 33, 82, 89, 18, 56, 41, 46, 31, 42, 50, 71, 23, 69, 44, 53, 13, 4, 18, 53, 31, 33, 28, 64, 32, 51, 17, 46, 67, 67, 37, 11, 31, 15, 73, 40, 42, 43, 65, 45, 67, 69, 14, 64, 37, 42, 14, 28, 56, 73, 49, 50, 47, 49, 71, 71, 58, 77, 70, 56, 23
              |56, 30, 50, 28, 49, 44, 40, 64, 73, 40, 56, 27, 34, 47, 60, 38, 41, 27, 25, 51, 42, 41, 34, 52, 31, 48, 36, 51, 47, 65, 45, 41, 35, 33, 55, 34, 38, 72, 49, 47, 26, 40, 29, 61, 12, 21, 38, 55, 57, 49, 43, 54, 45, 45, 13, 71, 45, 24, 6, 40, 43, 8, 27, 32, 28, 37, 76, 18, 47, 25, 43, 50, 16, 72, 18, 56, 11, 33, 63, 59, 33, 62, 29, 10, 30, 16, 38, 79, 21, 70, 55, 72, 40, 71, 67, 17, 46, 43, 35, 52, 58, 51, 30, 33, 76, 33, 50, 57, 52, 54, 63, 72, 18, 22, 26, 48, 60, 45, 30, 49, 28, 33, 25, 65, 48, 43, 16, 26, 55, 18, 25, 27, 33, 53, 15, 32, 26, 21, 27, 29, 16, 59, 79, 40, 55, 49, 35, 54, 31, 59, 48, 25, 46, 56, 47, 28, 20, 29, 63, 54, 15, 25, 51, 13, 32, 6, 66, 54, 66, 57, 33, 42, 20, 64, 33, 50, 52, 49, 63, 44, 46, 32, 62, 42, 21, 15, 52, 68, 57, 62, 64, 30, 41, 67, 48, 38, 55, 52, 63, 38
              |25, 61, 43, 11, 48, 76, 65, 85, 107, 56, 33, 57, 29, 65, 86, 53, 61, 43, 10, 85, 71, 72, 49, 59, 63, 76, 51, 50, 81, 99, 51, 61, 66, 4, 61, 1, 66, 89, 16, 75, 9, 21, 59, 87, 39, 47, 73, 79, 90, 69, 65, 82, 42, 80, 35, 87, 77, 39, 32, 43, 28, 28, 44, 35, 60, 14, 110, 25, 50, 59, 77, 45, 25, 85, 38, 87, 30, 7, 97, 92, 51, 72, 61, 25, 58, 20, 71, 113, 39, 91, 81, 87, 57, 105, 88, 20, 28, 61, 34, 21, 83, 79, 23, 67, 91, 33, 85, 71, 24, 67, 96, 107, 25, 52, 61, 82, 93, 73, 17, 40, 30, 65, 18, 98, 69, 57, 26, 59, 89, 29, 57, 36, 47, 86, 25, 67, 9, 45, 53, 59, 50, 68, 113, 51, 87, 75, 70, 57, 66, 85, 65, 54, 70, 79, 80, 24, 37, 52, 88, 55, 26, 9, 85, 48, 65, 35, 79, 88, 98, 70, 44, 66, 46, 98, 66, 76, 21, 82, 79, 59, 57, 28, 94, 11, 52, 41, 53, 91, 90, 84, 85, 64, 75, 100, 65, 69, 64, 85, 90, 58
              |85, 48, 59, 69, 52, 14, 9, 28, 52, 27, 78, 48, 53, 77, 19, 29, 70, 31, 63, 41, 60, 5, 71, 89, 45, 5, 30, 53, 26, 39, 42, 70, 9, 72, 46, 71, 6, 39, 81, 6, 62, 65, 13, 20, 50, 25, 34, 17, 25, 76, 70, 11, 53, 37, 53, 40, 51, 34, 41, 80, 63, 50, 64, 45, 43, 67, 55, 47, 46, 26, 41, 57, 59, 45, 57, 16, 41, 72, 37, 55, 67, 43, 16, 48, 13, 51, 13, 56, 59, 33, 13, 43, 26, 44, 29, 52, 68, 74, 49, 82, 18, 9, 73, 33, 45, 48, 38, 34, 79, 87, 28, 49, 61, 48, 30, 44, 54, 60, 58, 61, 47, 11, 67, 31, 74, 76, 45, 21, 49, 60, 45, 68, 33, 49, 57, 28, 65, 55, 56, 52, 35, 94, 57, 35, 18, 9, 25, 49, 24, 18, 78, 18, 71, 19, 22, 52, 35, 21, 22, 51, 58, 63, 40, 37, 43, 38, 41, 43, 30, 36, 35, 12, 25, 41, 19, 11, 82, 48, 36, 77, 82, 52, 27, 75, 44, 30, 50, 28, 54, 24, 27, 37, 24, 34, 79, 52, 90, 53, 21, 21
              |98, 32, 79, 73, 74, 12, 34, 52, 30, 51, 94, 35, 69, 61, 40, 52, 55, 49, 69, 15, 40, 21, 61, 77, 28, 28, 52, 75, 2, 21, 65, 55, 22, 78, 70, 79, 30, 65, 92, 31, 70, 79, 26, 41, 46, 38, 12, 42, 16, 59, 54, 32, 73, 12, 50, 66, 28, 50, 47, 73, 80, 52, 56, 63, 28, 79, 33, 57, 68, 20, 18, 78, 59, 71, 51, 24, 50, 77, 18, 29, 56, 69, 20, 54, 30, 59, 14, 35, 53, 56, 35, 69, 49, 26, 53, 60, 84, 59, 67, 94, 42, 31, 72, 16, 71, 65, 12, 60, 93, 72, 23, 28, 60, 37, 19, 19, 28, 40, 70, 80, 62, 20, 69, 23, 57, 63, 55, 20, 24, 58, 32, 62, 53, 23, 58, 13, 71, 47, 44, 37, 30, 80, 35, 57, 21, 35, 9, 73, 13, 40, 63, 31, 53, 44, 6, 66, 49, 39, 44, 75, 58, 69, 14, 33, 25, 44, 67, 17, 25, 62, 55, 37, 39, 20, 13, 36, 94, 23, 62, 64, 70, 67, 21, 86, 34, 40, 73, 51, 28, 49, 51, 21, 4, 24, 64, 32, 77, 28, 40, 44
              |71, 26, 57, 47, 53, 25, 27, 52, 56, 35, 69, 24, 44, 52, 45, 35, 45, 27, 43, 36, 39, 24, 44, 63, 24, 31, 34, 55, 28, 47, 46, 45, 18, 51, 55, 52, 24, 62, 66, 32, 44, 53, 14, 46, 24, 16, 23, 42, 38, 52, 46, 38, 51, 30, 27, 62, 35, 27, 20, 54, 55, 27, 38, 39, 21, 52, 59, 31, 49, 7, 30, 56, 34, 65, 30, 38, 23, 51, 44, 46, 41, 58, 11, 27, 17, 32, 20, 62, 33, 57, 39, 64, 34, 53, 54, 33, 59, 49, 43, 68, 44, 35, 48, 18, 67, 41, 34, 50, 67, 62, 45, 55, 36, 23, 11, 35, 47, 40, 44, 57, 37, 16, 44, 47, 50, 50, 29, 7, 42, 35, 21, 41, 33, 40, 33, 16, 44, 29, 30, 28, 9, 68, 62, 39, 37, 35, 18, 55, 13, 44, 53, 13, 48, 43, 28, 40, 25, 22, 48, 56, 33, 43, 35, 10, 23, 17, 59, 38, 47, 51, 34, 30, 16, 46, 14, 36, 68, 36, 55, 52, 56, 43, 43, 59, 19, 15, 54, 54, 44, 49, 51, 18, 22, 48, 54, 32, 64, 41, 48, 30
              |71, 23, 58, 45, 55, 28, 30, 55, 57, 38, 69, 21, 45, 48, 49, 37, 42, 29, 41, 36, 36, 27, 41, 59, 21, 35, 37, 57, 30, 49, 48, 42, 22, 50, 57, 50, 28, 65, 65, 35, 42, 53, 18, 50, 20, 18, 23, 46, 41, 48, 42, 41, 53, 30, 24, 65, 33, 28, 19, 51, 55, 24, 34, 40, 18, 52, 60, 31, 51, 8, 29, 58, 31, 68, 27, 41, 23, 49, 46, 45, 37, 61, 15, 26, 21, 31, 23, 63, 29, 61, 43, 67, 37, 55, 58, 32, 59, 45, 44, 67, 48, 38, 45, 17, 70, 42, 35, 53, 66, 58, 47, 56, 33, 19, 11, 34, 46, 38, 43, 58, 38, 19, 41, 49, 47, 47, 29, 10, 41, 32, 18, 38, 35, 39, 31, 16, 42, 26, 27, 25, 6, 65, 62, 41, 40, 38, 19, 57, 15, 48, 50, 17, 44, 47, 30, 40, 26, 25, 52, 58, 30, 41, 35, 7, 21, 16, 62, 38, 49, 54, 36, 33, 18, 48, 16, 40, 67, 35, 58, 48, 52, 43, 46, 58, 16, 16, 56, 58, 43, 53, 55, 16, 24, 51, 50, 29, 61, 40, 51, 34
              |73, 51, 46, 61, 39, 26, 4, 26, 65, 15, 66, 50, 41, 78, 24, 16, 72, 20, 55, 51, 64, 17, 70, 88, 49, 16, 18, 40, 37, 52, 30, 72, 15, 63, 34, 61, 7, 35, 71, 13, 53, 53, 13, 25, 47, 17, 41, 18, 37, 78, 72, 20, 40, 46, 50, 36, 58, 24, 34, 78, 51, 45, 63, 33, 47, 56, 67, 37, 33, 30, 49, 44, 53, 38, 54, 28, 33, 64, 49, 64, 67, 33, 20, 41, 9, 43, 22, 68, 57, 32, 19, 37, 13, 57, 29, 43, 56, 75, 37, 71, 21, 17, 67, 39, 41, 36, 48, 25, 67, 88, 40, 61, 55, 49, 35, 53, 64, 65, 47, 48, 35, 17, 61, 44, 77, 76, 36, 25, 59, 56, 48, 64, 20, 58, 52, 35, 57, 55, 57, 54, 35, 94, 69, 22, 30, 13, 33, 37, 31, 23, 79, 13, 74, 18, 34, 41, 25, 10, 26, 39, 52, 54, 50, 36, 48, 32, 33, 53, 42, 26, 23, 4, 18, 53, 26, 14, 71, 56, 29, 78, 82, 40, 40, 65, 46, 23, 38, 30, 63, 24, 26, 42, 33, 47, 80, 56, 90, 61, 28, 8
              |89, 75, 56, 85, 48, 40, 24, 1, 74, 28, 79, 74, 58, 103, 14, 31, 96, 41, 78, 67, 87, 32, 95, 113, 72, 24, 33, 47, 52, 60, 39, 96, 35, 85, 35, 82, 27, 12, 89, 22, 75, 70, 37, 15, 73, 42, 61, 10, 45, 102, 96, 21, 51, 64, 75, 14, 78, 45, 59, 103, 66, 69, 88, 50, 70, 75, 76, 59, 41, 53, 69, 53, 78, 20, 79, 32, 57, 87, 58, 81, 92, 25, 42, 65, 34, 66, 40, 76, 82, 7, 17, 17, 27, 64, 5, 66, 70, 100, 53, 88, 11, 22, 91, 61, 18, 53, 64, 18, 83, 112, 44, 69, 80, 74, 57, 71, 80, 88, 67, 59, 54, 38, 85, 48, 101, 101, 59, 48, 76, 81, 72, 90, 37, 76, 77, 56, 80, 80, 81, 78, 60, 119, 77, 34, 36, 18, 53, 40, 52, 14, 104, 39, 97, 8, 47, 60, 48, 34, 12, 43, 77, 76, 66, 61, 70, 57, 19, 69, 45, 21, 40, 21, 42, 63, 47, 17, 88, 75, 13, 103, 107, 58, 44, 84, 70, 48, 43, 9, 80, 4, 3, 64, 50, 51, 105, 79, 115, 80, 18, 26
              |76, 41, 88, 40, 90, 78, 82, 107, 91, 84, 84, 38, 71, 21, 102, 82, 22, 71, 45, 69, 40, 80, 12, 9, 45, 88, 81, 92, 75, 90, 88, 22, 74, 47, 99, 52, 80, 116, 66, 88, 51, 70, 70, 102, 34, 65, 61, 98, 88, 26, 25, 94, 85, 66, 32, 116, 53, 67, 50, 8, 76, 40, 18, 73, 44, 63, 93, 57, 89, 58, 60, 89, 33, 117, 27, 93, 53, 44, 88, 68, 17, 106, 67, 47, 72, 50, 74, 98, 24, 113, 96, 117, 84, 95, 110, 51, 77, 18, 74, 72, 100, 91, 28, 57, 121, 72, 71, 101, 75, 17, 96, 93, 31, 36, 55, 63, 70, 42, 61, 86, 68, 72, 34, 96, 27, 13, 56, 62, 68, 28, 41, 18, 77, 65, 34, 60, 44, 27, 29, 36, 47, 17, 96, 84, 91, 91, 65, 96, 62, 101, 19, 68, 30, 99, 77, 65, 64, 73, 105, 96, 34, 48, 70, 46, 48, 51, 110, 71, 97, 101, 76, 85, 65, 87, 66, 92, 72, 61, 108, 14, 7, 69, 94, 62, 40, 59, 93, 110, 66, 105, 107, 52, 70, 97, 18, 44, 13, 61, 104, 82
              |83, 16, 84, 48, 84, 55, 64, 89, 65, 71, 87, 14, 68, 14, 81, 70, 8, 60, 49, 43, 14, 59, 15, 29, 20, 67, 69, 86, 50, 64, 79, 8, 54, 55, 89, 59, 62, 99, 74, 68, 54, 72, 52, 82, 23, 51, 36, 79, 64, 14, 9, 73, 80, 40, 25, 100, 27, 58, 41, 29, 76, 35, 16, 67, 20, 66, 67, 52, 81, 36, 34, 85, 34, 102, 21, 70, 46, 53, 62, 42, 10, 94, 47, 42, 55, 47, 52, 72, 19, 95, 75, 101, 71, 69, 91, 48, 78, 12, 69, 79, 81, 71, 39, 32, 105, 67, 45, 87, 81, 25, 71, 67, 33, 15, 32, 37, 44, 17, 61, 83, 62, 51, 41, 71, 14, 15, 50, 41, 42, 29, 17, 24, 66, 39, 34, 37, 49, 14, 8, 11, 29, 32, 70, 73, 67, 72, 41, 88, 39, 80, 16, 51, 12, 81, 53, 62, 54, 58, 85, 88, 33, 51, 44, 28, 23, 40, 96, 45, 73, 88, 66, 67, 51, 61, 44, 73, 79, 35, 92, 16, 22, 66, 69, 69, 18, 47, 86, 91, 40, 86, 88, 27, 46, 71, 16, 18, 29, 35, 83, 67
              |88, 68, 55, 80, 48, 33, 18, 7, 68, 25, 78, 68, 56, 96, 10, 28, 90, 37, 74, 61, 80, 25, 89, 107, 65, 18, 30, 48, 45, 54, 38, 90, 29, 81, 36, 79, 21, 19, 87, 15, 71, 68, 30, 11, 67, 36, 54, 3, 39, 96, 90, 15, 51, 57, 69, 20, 72, 41, 54, 97, 65, 64, 82, 48, 63, 72, 70, 55, 41, 46, 62, 53, 73, 26, 74, 26, 53, 83, 52, 74, 85, 29, 35, 60, 28, 62, 33, 70, 76, 13, 11, 23, 24, 58, 9, 62, 69, 93, 51, 86, 6, 15, 86, 54, 25, 51, 57, 20, 81, 106, 38, 64, 75, 67, 51, 65, 74, 81, 64, 59, 51, 31, 80, 42, 94, 95, 55, 41, 69, 76, 65, 84, 34, 69, 72, 49, 76, 74, 75, 72, 54, 113, 72, 33, 30, 11, 46, 41, 45, 9, 98, 33, 91, 1, 41, 57, 43, 29, 9, 44, 72, 73, 60, 55, 63, 52, 24, 62, 40, 23, 37, 16, 37, 57, 40, 10, 86, 68, 17, 96, 101, 56, 39, 81, 64, 43, 44, 11, 74, 4, 6, 57, 44, 46, 98, 72, 109, 73, 15, 22
              |62, 40, 74, 26, 76, 73, 73, 97, 91, 72, 69, 36, 57, 30, 93, 70, 28, 59, 31, 68, 43, 72, 14, 23, 43, 80, 69, 79, 71, 88, 75, 28, 66, 33, 86, 38, 71, 105, 52, 80, 36, 56, 62, 94, 25, 55, 59, 89, 84, 34, 32, 86, 71, 64, 22, 105, 54, 55, 38, 7, 62, 28, 14, 60, 42, 49, 94, 44, 76, 51, 59, 76, 20, 105, 18, 86, 41, 30, 86, 70, 18, 94, 60, 34, 63, 36, 68, 98, 16, 103, 87, 106, 73, 93, 100, 37, 63, 26, 61, 58, 91, 83, 14, 53, 109, 59, 70, 89, 61, 30, 91, 93, 18, 32, 50, 63, 72, 46, 47, 72, 54, 64, 19, 92, 36, 22, 43, 55, 69, 16, 38, 7, 65, 66, 21, 56, 30, 22, 28, 35, 40, 32, 97, 71, 85, 82, 60, 83, 57, 92, 29, 58, 37, 89, 73, 51, 52, 62, 96, 82, 21, 33, 69, 39, 46, 40, 99, 71, 93, 89, 64, 75, 54, 86, 60, 83, 58, 61, 96, 23, 20, 55, 89, 48, 35, 49, 80, 101, 68, 95, 97, 48, 66, 93, 29, 45, 27, 63, 96, 71
              |25, 66, 48, 14, 54, 83, 72, 92, 113, 63, 35, 62, 35, 67, 93, 60, 63, 50, 16, 91, 74, 78, 50, 59, 68, 83, 58, 56, 87, 106, 57, 63, 73, 7, 68, 8, 73, 96, 15, 82, 16, 26, 66, 94, 43, 54, 78, 86, 97, 71, 67, 89, 48, 85, 39, 94, 81, 46, 39, 43, 33, 33, 46, 42, 65, 19, 116, 32, 56, 65, 82, 51, 29, 92, 42, 94, 37, 9, 103, 97, 53, 79, 68, 31, 65, 27, 77, 119, 42, 98, 88, 94, 64, 111, 95, 27, 32, 63, 40, 21, 90, 86, 24, 72, 98, 39, 90, 78, 25, 67, 102, 113, 29, 57, 67, 87, 98, 77, 24, 45, 37, 71, 21, 105, 72, 59, 33, 66, 94, 32, 62, 38, 54, 91, 29, 73, 14, 49, 57, 63, 55, 68, 119, 58, 94, 82, 76, 63, 72, 92, 66, 60, 72, 86, 87, 31, 44, 59, 95, 61, 30, 16, 91, 53, 70, 42, 85, 93, 105, 76, 51, 73, 53, 104, 72, 83, 21, 87, 86, 61, 57, 34, 101, 13, 57, 48, 59, 98, 95, 91, 92, 69, 81, 107, 66, 73, 64, 90, 97, 65
              |56, 29, 53, 26, 53, 47, 44, 68, 74, 45, 58, 25, 37, 43, 65, 43, 37, 31, 23, 52, 40, 45, 30, 48, 30, 52, 41, 55, 49, 68, 49, 37, 39, 31, 60, 33, 43, 77, 48, 52, 26, 41, 34, 66, 8, 26, 40, 60, 60, 45, 39, 58, 49, 47, 8, 76, 44, 28, 10, 35, 45, 6, 22, 36, 27, 38, 77, 21, 51, 27, 44, 54, 12, 77, 13, 60, 15, 31, 65, 59, 28, 67, 33, 11, 35, 17, 42, 81, 16, 75, 59, 77, 45, 73, 72, 18, 48, 39, 38, 52, 63, 55, 26, 34, 81, 36, 52, 62, 52, 50, 67, 74, 14, 20, 28, 49, 60, 43, 31, 52, 31, 37, 22, 68, 44, 38, 19, 29, 56, 14, 24, 22, 38, 53, 11, 34, 24, 17, 24, 27, 17, 55, 80, 45, 59, 54, 38, 58, 34, 64, 43, 30, 43, 61, 50, 31, 25, 34, 68, 58, 11, 24, 52, 15, 32, 11, 71, 55, 69, 62, 37, 47, 25, 66, 36, 55, 52, 49, 68, 40, 42, 35, 65, 42, 20, 20, 56, 73, 57, 67, 68, 30, 43, 70, 44, 37, 50, 52, 68, 43
              |62, 37, 73, 26, 75, 70, 70, 95, 88, 70, 69, 33, 56, 29, 90, 68, 26, 57, 30, 66, 41, 69, 13, 24, 41, 77, 66, 77, 68, 85, 73, 26, 64, 33, 84, 38, 69, 103, 53, 77, 36, 55, 59, 91, 22, 52, 56, 86, 81, 33, 30, 83, 70, 61, 19, 102, 51, 53, 35, 9, 61, 25, 11, 58, 39, 48, 91, 42, 74, 48, 56, 74, 18, 103, 15, 83, 39, 30, 83, 68, 16, 92, 57, 32, 60, 34, 65, 95, 13, 101, 85, 103, 70, 90, 98, 35, 62, 25, 59, 58, 89, 80, 15, 50, 107, 57, 67, 87, 61, 30, 88, 90, 16, 29, 47, 60, 69, 43, 46, 71, 52, 61, 19, 89, 34, 21, 41, 52, 66, 13, 35, 4, 63, 63, 19, 53, 29, 19, 25, 32, 37, 32, 94, 69, 82, 79, 57, 81, 54, 89, 28, 55, 35, 87, 70, 50, 49, 60, 93, 80, 19, 33, 66, 36, 43, 37, 96, 68, 90, 87, 62, 72, 51, 83, 57, 81, 58, 59, 94, 23, 20, 54, 86, 48, 32, 46, 78, 98, 65, 93, 94, 45, 63, 90, 28, 42, 28, 60, 93, 69
              |91, 18, 91, 55, 90, 57, 69, 93, 62, 77, 95, 18, 75, 12, 84, 75, 8, 66, 57, 41, 10, 62, 21, 31, 21, 70, 75, 92, 51, 63, 85, 8, 57, 62, 95, 66, 65, 104, 82, 71, 61, 79, 56, 85, 30, 56, 37, 83, 64, 10, 5, 76, 87, 40, 32, 104, 24, 64, 47, 34, 83, 42, 22, 74, 23, 74, 64, 59, 87, 40, 33, 92, 41, 107, 28, 72, 52, 60, 61, 39, 16, 99, 50, 49, 59, 54, 55, 69, 27, 98, 79, 106, 76, 67, 95, 55, 86, 12, 76, 87, 84, 74, 46, 34, 109, 74, 44, 92, 88, 24, 72, 65, 40, 20, 35, 35, 41, 12, 68, 90, 69, 54, 48, 71, 8, 17, 57, 45, 39, 36, 21, 31, 72, 36, 41, 39, 56, 21, 14, 14, 34, 32, 67, 79, 69, 75, 42, 94, 42, 83, 14, 56, 5, 84, 54, 69, 60, 64, 88, 94, 41, 58, 43, 34, 24, 47, 101, 43, 73, 93, 73, 72, 56, 60, 47, 76, 87, 32, 97, 17, 24, 73, 69, 76, 23, 52, 92, 94, 36, 90, 92, 29, 48, 71, 15, 17, 29, 31, 85, 72
              |79, 37, 58, 60, 52, 14, 15, 38, 51, 29, 74, 37, 49, 65, 31, 30, 59, 28, 55, 35, 49, 9, 59, 78, 34, 17, 31, 54, 22, 40, 43, 59, 3, 63, 49, 63, 11, 49, 75, 17, 54, 60, 5, 31, 39, 18, 25, 28, 27, 64, 59, 23, 52, 30, 42, 50, 42, 30, 32, 69, 59, 40, 53, 42, 32, 61, 54, 39, 47, 15, 33, 56, 48, 54, 45, 24, 33, 63, 37, 48, 55, 49, 4, 39, 9, 43, 8, 56, 48, 44, 25, 52, 28, 45, 40, 43, 64, 62, 46, 76, 30, 20, 62, 23, 55, 45, 33, 41, 74, 75, 33, 49, 50, 36, 19, 37, 48, 50, 52, 59, 42, 1, 57, 35, 63, 65, 38, 10, 43, 49, 34, 56, 31, 42, 47, 19, 56, 44, 44, 40, 24, 82, 56, 36, 24, 21, 17, 51, 15, 30, 67, 11, 60, 30, 20, 46, 29, 18, 34, 53, 47, 54, 35, 25, 32, 28, 49, 38, 35, 42, 34, 18, 19, 40, 10, 22, 76, 40, 44, 66, 70, 47, 31, 68, 33, 22, 52, 40, 47, 35, 38, 26, 18, 38, 67, 41, 78, 45, 33, 23
              |46, 51, 28, 36, 26, 47, 31, 50, 83, 21, 41, 48, 16, 70, 51, 18, 64, 8, 29, 64, 64, 40, 57, 74, 50, 43, 17, 28, 55, 73, 22, 64, 35, 36, 33, 34, 32, 55, 43, 41, 26, 27, 28, 52, 35, 16, 52, 44, 61, 72, 66, 48, 23, 59, 35, 54, 63, 4, 17, 60, 26, 26, 50, 10, 47, 28, 86, 11, 24, 36, 59, 28, 33, 53, 40, 55, 13, 38, 70, 75, 56, 41, 33, 19, 26, 18, 42, 89, 43, 56, 47, 54, 22, 78, 53, 18, 30, 66, 14, 43, 48, 45, 45, 47, 58, 12, 63, 38, 40, 77, 65, 81, 35, 44, 40, 64, 76, 66, 20, 28, 8, 35, 38, 68, 71, 65, 11, 34, 71, 38, 46, 48, 13, 69, 32, 45, 32, 44, 50, 51, 33, 82, 89, 18, 56, 41, 46, 31, 42, 50, 71, 23, 69, 44, 53, 13, 4, 18, 53, 31, 33, 28, 64, 32, 51, 17, 46, 67, 67, 37, 11, 31, 15, 73, 40, 42, 43, 65, 45, 67, 69, 14, 64, 37, 42, 14, 28, 56, 73, 49, 50, 47, 49, 71, 71, 58, 77, 70, 56, 23
              |97, 17, 85, 67, 81, 29, 47, 69, 34, 61, 96, 21, 72, 44, 58, 61, 39, 55, 65, 11, 22, 36, 46, 61, 14, 44, 61, 83, 20, 32, 73, 39, 34, 73, 81, 75, 43, 81, 90, 47, 67, 80, 36, 58, 37, 44, 8, 59, 34, 41, 36, 49, 80, 8, 42, 82, 10, 55, 45, 60, 82, 47, 43, 67, 16, 78, 37, 58, 77, 21, 2, 84, 52, 86, 41, 42, 50, 72, 30, 18, 41, 82, 29, 51, 40, 57, 29, 41, 42, 73, 52, 84, 60, 37, 70, 58, 86, 43, 71, 93, 59, 48, 63, 10, 87, 69, 13, 73, 93, 55, 41, 36, 53, 25, 17, 7, 19, 22, 70, 85, 65, 32, 61, 40, 39, 47, 56, 25, 14, 50, 20, 51, 61, 12, 51, 14, 66, 35, 29, 22, 26, 63, 40, 66, 39, 51, 16, 82, 18, 57, 46, 39, 35, 60, 24, 68, 53, 48, 61, 83, 51, 66, 12, 28, 11, 43, 81, 14, 42, 75, 62, 50, 44, 29, 23, 52, 93, 8, 76, 48, 54, 70, 38, 84, 23, 43, 82, 68, 16, 65, 68, 11, 19, 40, 47, 15, 60, 13, 58, 55
              |29, 69, 14, 37, 18, 67, 49, 62, 104, 34, 21, 66, 5, 84, 67, 31, 78, 26, 31, 85, 82, 60, 69, 84, 69, 61, 29, 20, 75, 93, 23, 78, 55, 33, 33, 28, 51, 63, 29, 59, 25, 10, 49, 68, 50, 36, 72, 59, 81, 86, 81, 65, 13, 79, 48, 61, 83, 24, 34, 68, 6, 38, 62, 12, 66, 17, 107, 21, 22, 57, 79, 16, 42, 58, 53, 73, 29, 36, 91, 95, 69, 44, 54, 31, 46, 26, 62, 109, 56, 67, 64, 61, 35, 99, 66, 25, 10, 80, 8, 27, 63, 63, 49, 68, 65, 9, 84, 45, 23, 89, 85, 102, 44, 62, 61, 84, 96, 84, 14, 11, 13, 55, 42, 88, 86, 78, 23, 55, 91, 48, 64, 58, 25, 89, 41, 65, 32, 59, 66, 69, 52, 92, 110, 26, 75, 58, 67, 27, 62, 66, 84, 43, 85, 58, 74, 11, 25, 37, 68, 25, 42, 28, 85, 51, 70, 35, 52, 88, 87, 43, 22, 48, 36, 94, 61, 58, 27, 86, 53, 80, 79, 7, 84, 25, 60, 34, 23, 69, 94, 62, 63, 66, 70, 91, 84, 77, 88, 90, 72, 38
              |51, 39, 40, 31, 39, 43, 33, 56, 76, 30, 49, 36, 25, 58, 54, 28, 52, 16, 25, 56, 52, 38, 45, 63, 39, 43, 26, 41, 48, 67, 34, 52, 32, 34, 45, 33, 33, 63, 45, 42, 24, 33, 26, 55, 23, 14, 43, 48, 57, 59, 54, 49, 35, 50, 23, 62, 52, 13, 5, 50, 35, 15, 38, 22, 36, 32, 79, 11, 36, 28, 49, 40, 23, 62, 28, 53, 3, 34, 64, 65, 43, 52, 28, 10, 25, 13, 38, 82, 31, 62, 49, 63, 30, 73, 59, 14, 38, 54, 25, 48, 52, 46, 36, 38, 67, 23, 55, 47, 46, 65, 62, 75, 26, 32, 31, 54, 66, 54, 23, 39, 18, 31, 30, 65, 59, 53, 8, 27, 61, 27, 34, 37, 23, 59, 22, 36, 27, 32, 38, 39, 22, 70, 82, 29, 53, 43, 38, 43, 34, 53, 58, 20, 57, 49, 48, 20, 9, 21, 57, 43, 22, 25, 56, 21, 40, 5, 56, 59, 65, 47, 22, 35, 13, 67, 34, 44, 48, 55, 54, 55, 57, 23, 61, 39, 30, 8, 41, 61, 64, 54, 56, 36, 43, 67, 59, 47, 65, 60, 58, 29
              |37, 54, 53, 3, 57, 75, 67, 89, 102, 61, 45, 50, 37, 54, 88, 58, 50, 47, 10, 80, 62, 71, 37, 47, 56, 77, 56, 59, 77, 96, 58, 50, 65, 8, 69, 13, 67, 94, 27, 76, 15, 33, 59, 89, 31, 48, 68, 82, 88, 58, 54, 83, 52, 74, 27, 93, 69, 43, 31, 31, 39, 23, 33, 42, 53, 25, 105, 29, 58, 55, 71, 55, 17, 92, 29, 87, 31, 5, 93, 85, 40, 79, 60, 24, 59, 22, 69, 109, 29, 95, 83, 94, 61, 102, 92, 22, 39, 50, 42, 33, 86, 80, 11, 62, 98, 41, 80, 77, 36, 55, 94, 102, 16, 45, 56, 76, 87, 64, 26, 50, 37, 64, 8, 96, 59, 46, 29, 57, 83, 20, 50, 25, 52, 80, 17, 63, 8, 36, 44, 50, 45, 56, 108, 57, 86, 77, 66, 65, 62, 87, 53, 54, 59, 82, 78, 32, 40, 55, 91, 64, 18, 12, 80, 43, 58, 34, 85, 82, 97, 76, 50, 69, 47, 94, 64, 78, 33, 75, 85, 48, 45, 36, 93, 23, 46, 42, 62, 95, 83, 88, 89, 58, 72, 98, 53, 61, 52, 78, 92, 62
              |86, 46, 99, 51, 100, 85, 91, 115, 93, 94, 94, 44, 82, 19, 109, 92, 23, 80, 56, 72, 41, 87, 20, 2, 50, 95, 90, 102, 80, 94, 98, 23, 82, 57, 109, 63, 88, 125, 76, 96, 61, 81, 78, 110, 42, 74, 66, 106, 94, 24, 26, 101, 95, 70, 41, 125, 55, 77, 59, 18, 87, 50, 27, 83, 50, 74, 95, 67, 99, 64, 64, 100, 43, 126, 36, 99, 63, 54, 92, 69, 23, 116, 74, 57, 81, 60, 81, 100, 33, 121, 103, 126, 93, 98, 118, 61, 88, 19, 85, 82, 108, 99, 38, 62, 129, 83, 75, 110, 85, 10, 101, 96, 42, 42, 61, 66, 71, 43, 72, 96, 78, 79, 44, 101, 26, 15, 66, 69, 70, 38, 46, 28, 87, 67, 45, 66, 54, 35, 35, 41, 55, 7, 98, 94, 97, 99, 70, 106, 69, 108, 17, 76, 29, 107, 83, 75, 74, 82, 112, 106, 44, 58, 73, 54, 53, 60, 120, 74, 103, 111, 86, 93, 74, 90, 73, 100, 82, 63, 117, 14, 8, 80, 99, 72, 46, 69, 103, 118, 67, 113, 115, 57, 76, 101, 16, 47, 4, 62, 111, 91
              |94, 22, 95, 58, 95, 61, 73, 97, 64, 81, 98, 22, 79, 10, 88, 80, 8, 70, 60, 44, 12, 66, 22, 30, 25, 74, 79, 97, 54, 66, 89, 8, 62, 65, 99, 69, 70, 108, 85, 76, 64, 82, 60, 89, 34, 61, 40, 87, 68, 6, 4, 80, 91, 43, 36, 108, 26, 68, 51, 35, 87, 46, 25, 78, 27, 77, 66, 63, 92, 44, 36, 96, 44, 111, 31, 75, 56, 63, 64, 40, 18, 104, 55, 53, 64, 58, 59, 71, 30, 103, 83, 110, 81, 70, 99, 59, 89, 11, 80, 90, 88, 78, 48, 38, 113, 78, 47, 97, 91, 21, 75, 67, 44, 25, 40, 38, 42, 14, 72, 94, 73, 59, 51, 74, 4, 17, 61, 49, 41, 40, 25, 33, 77, 38, 45, 43, 59, 25, 18, 19, 38, 29, 69, 83, 72, 79, 46, 98, 46, 88, 12, 60, 1, 89, 58, 73, 65, 68, 92, 99, 44, 62, 45, 38, 28, 51, 106, 46, 77, 97, 77, 76, 61, 62, 51, 81, 90, 34, 102, 16, 23, 77, 73, 79, 28, 57, 97, 98, 38, 94, 96, 33, 51, 74, 13, 20, 27, 33, 89, 77
              |60, 29, 50, 34, 48, 38, 34, 58, 68, 36, 59, 26, 35, 49, 54, 34, 43, 24, 30, 47, 42, 35, 38, 57, 29, 42, 33, 50, 41, 60, 43, 43, 29, 38, 53, 39, 33, 67, 53, 41, 31, 43, 23, 55, 16, 16, 34, 50, 51, 50, 45, 48, 45, 41, 17, 67, 42, 22, 8, 45, 45, 14, 31, 32, 26, 40, 71, 20, 45, 19, 40, 50, 22, 68, 22, 50, 12, 38, 57, 56, 36, 59, 23, 14, 24, 20, 33, 74, 25, 64, 49, 68, 36, 66, 61, 21, 48, 46, 35, 56, 53, 45, 36, 28, 72, 33, 46, 52, 55, 57, 57, 67, 24, 22, 22, 45, 57, 44, 32, 49, 28, 27, 31, 59, 50, 46, 18, 20, 52, 24, 24, 32, 30, 49, 21, 28, 31, 24, 28, 29, 12, 63, 74, 37, 49, 43, 30, 52, 26, 53, 50, 19, 48, 51, 41, 30, 18, 24, 57, 52, 21, 30, 47, 10, 30, 5, 62, 50, 60, 53, 30, 36, 16, 59, 27, 45, 56, 46, 59, 47, 50, 33, 56, 47, 20, 11, 50, 62, 54, 56, 58, 26, 35, 61, 51, 36, 59, 50, 57, 33
              |33, 64, 17, 35, 19, 62, 44, 58, 98, 29, 26, 61, 1, 79, 63, 26, 74, 21, 28, 79, 76, 54, 65, 80, 64, 56, 25, 21, 70, 88, 21, 74, 50, 32, 32, 28, 46, 61, 32, 54, 23, 13, 43, 64, 45, 30, 67, 55, 75, 82, 76, 60, 14, 73, 44, 59, 77, 18, 28, 65, 11, 34, 58, 7, 61, 18, 101, 16, 21, 51, 73, 18, 39, 56, 49, 68, 23, 35, 85, 90, 64, 43, 48, 26, 40, 22, 57, 104, 51, 64, 59, 58, 31, 93, 62, 21, 16, 75, 4, 31, 59, 58, 46, 62, 63, 4, 78, 42, 27, 85, 79, 96, 40, 56, 55, 78, 90, 79, 12, 15, 7, 49, 39, 83, 81, 73, 18, 49, 85, 44, 59, 54, 21, 83, 37, 60, 30, 54, 61, 63, 47, 88, 104, 23, 70, 53, 61, 27, 57, 62, 80, 37, 80, 54, 68, 7, 19, 32, 64, 25, 38, 26, 79, 45, 65, 30, 50, 82, 82, 41, 18, 43, 30, 88, 55, 53, 31, 80, 50, 75, 76, 2, 78, 27, 55, 29, 23, 66, 88, 59, 59, 61, 64, 85, 80, 71, 84, 84, 67, 34
              |130, 54, 112, 103, 106, 42, 64, 76, 3, 82, 127, 58, 102, 76, 62, 83, 72, 82, 100, 25, 54, 51, 82, 95, 50, 55, 84, 107, 32, 16, 97, 72, 53, 108, 101, 110, 61, 88, 124, 58, 102, 112, 59, 62, 74, 71, 37, 68, 31, 72, 69, 55, 106, 31, 78, 90, 40, 83, 79, 96, 112, 83, 80, 95, 52, 111, 0, 90, 100, 52, 35, 110, 88, 96, 78, 44, 82, 108, 18, 26, 77, 98, 53, 85, 62, 91, 46, 5, 79, 78, 59, 93, 81, 13, 75, 91, 117, 76, 100, 127, 65, 56, 100, 43, 94, 98, 25, 88, 125, 87, 33, 7, 89, 62, 49, 30, 24, 52, 103, 113, 95, 52, 98, 29, 70, 81, 88, 52, 25, 86, 56, 87, 85, 28, 87, 43, 101, 72, 66, 59, 60, 95, 3, 89, 40, 61, 41, 104, 45, 62, 78, 64, 66, 70, 34, 98, 82, 72, 65, 106, 87, 101, 25, 62, 48, 76, 94, 23, 32, 91, 87, 67, 71, 14, 46, 62, 127, 33, 88, 81, 88, 100, 32, 118, 60, 73, 105, 71, 28, 72, 74, 47, 37, 26, 79, 49, 93, 33, 59, 75
              |58, 71, 24, 61, 16, 51, 29, 33, 90, 11, 48, 69, 29, 93, 41, 11, 87, 21, 53, 76, 84, 42, 82, 99, 69, 40, 11, 16, 62, 77, 7, 87, 40, 59, 9, 55, 32, 33, 59, 37, 49, 40, 36, 42, 59, 30, 65, 32, 63, 95, 89, 42, 20, 71, 60, 31, 80, 24, 42, 86, 35, 51, 74, 22, 66, 46, 93, 36, 10, 51, 73, 21, 59, 29, 65, 52, 38, 61, 75, 88, 80, 16, 43, 45, 32, 43, 48, 94, 68, 38, 39, 31, 12, 82, 37, 43, 39, 90, 24, 57, 37, 40, 70, 62, 35, 24, 73, 15, 52, 101, 65, 87, 61, 66, 56, 77, 89, 86, 39, 28, 27, 42, 63, 69, 94, 90, 36, 47, 84, 63, 66, 73, 14, 82, 57, 58, 56, 68, 73, 72, 53, 107, 95, 7, 55, 34, 57, 11, 54, 40, 94, 33, 91, 31, 59, 32, 27, 24, 41, 14, 58, 51, 75, 52, 69, 41, 22, 78, 67, 13, 15, 26, 30, 79, 50, 34, 57, 80, 23, 91, 93, 29, 64, 55, 63, 34, 13, 41, 87, 34, 34, 63, 58, 72, 95, 77, 102, 85, 46, 18
              |74, 68, 42, 71, 34, 39, 17, 16, 77, 13, 65, 66, 43, 94, 23, 16, 87, 27, 64, 66, 81, 30, 84, 103, 65, 25, 18, 34, 51, 64, 24, 87, 30, 71, 23, 68, 21, 21, 74, 22, 60, 55, 29, 24, 62, 30, 57, 15, 48, 94, 88, 26, 37, 61, 63, 21, 74, 31, 46, 91, 51, 57, 77, 35, 63, 60, 80, 45, 27, 46, 65, 39, 65, 22, 68, 37, 44, 72, 61, 79, 81, 18, 36, 51, 25, 52, 37, 80, 71, 22, 22, 22, 12, 68, 20, 52, 56, 90, 38, 73, 19, 24, 78, 55, 25, 38, 63, 9, 68, 103, 49, 73, 67, 65, 51, 69, 79, 82, 52, 45, 39, 33, 71, 53, 93, 91, 45, 41, 74, 69, 64, 78, 22, 73, 64, 51, 66, 69, 72, 70, 51, 109, 81, 19, 40, 18, 49, 28, 47, 23, 95, 29, 90, 14, 47, 45, 34, 22, 23, 30, 64, 62, 65, 51, 64, 44, 17, 68, 51, 11, 25, 14, 30, 66, 42, 18, 73, 72, 13, 93, 96, 43, 49, 69, 61, 36, 30, 24, 78, 17, 17, 58, 48, 56, 95, 73, 105, 77, 28, 13
              |77, 9, 72, 44, 70, 41, 49, 74, 58, 56, 78, 4, 56, 30, 66, 55, 23, 45, 43, 35, 20, 44, 25, 43, 11, 52, 54, 72, 38, 55, 65, 23, 39, 50, 74, 53, 46, 84, 69, 53, 46, 62, 36, 67, 14, 36, 25, 64, 51, 30, 24, 58, 67, 31, 18, 84, 24, 44, 28, 37, 66, 26, 20, 54, 9, 58, 61, 41, 67, 21, 26, 72, 28, 87, 17, 56, 33, 49, 52, 40, 20, 79, 31, 32, 39, 37, 38, 65, 18, 79, 60, 86, 55, 60, 76, 38, 68, 27, 57, 73, 65, 55, 39, 20, 89, 55, 36, 72, 73, 40, 59, 59, 29, 1, 18, 31, 41, 22, 52, 71, 50, 36, 38, 59, 29, 29, 38, 26, 37, 26, 4, 27, 52, 34, 28, 23, 43, 11, 9, 7, 13, 47, 64, 59, 53, 56, 27, 74, 25, 65, 31, 35, 26, 65, 40, 51, 40, 43, 69, 74, 28, 44, 36, 13, 13, 27, 81, 38, 61, 72, 52, 52, 35, 52, 30, 57, 73, 30, 77, 30, 35, 54, 57, 62, 3, 32, 72, 75, 38, 71, 73, 15, 33, 60, 32, 16, 43, 33, 68, 52
              |85, 41, 62, 67, 56, 8, 15, 35, 47, 32, 80, 41, 55, 70, 25, 34, 64, 33, 62, 34, 53, 3, 65, 83, 37, 11, 34, 58, 19, 35, 47, 64, 4, 70, 52, 70, 11, 47, 81, 13, 61, 66, 11, 26, 45, 24, 26, 25, 21, 69, 63, 17, 57, 29, 49, 48, 43, 36, 39, 75, 65, 47, 59, 47, 36, 67, 50, 46, 51, 20, 34, 61, 55, 53, 52, 17, 40, 70, 32, 47, 61, 50, 10, 46, 13, 50, 5, 51, 54, 40, 20, 51, 31, 40, 37, 50, 70, 67, 52, 82, 26, 15, 69, 26, 53, 50, 31, 41, 80, 80, 26, 44, 57, 42, 23, 37, 47, 53, 58, 64, 48, 6, 64, 29, 67, 70, 44, 15, 42, 56, 39, 63, 36, 42, 54, 21, 63, 50, 49, 45, 30, 88, 52, 39, 17, 17, 18, 54, 17, 25, 71, 17, 64, 27, 16, 53, 36, 23, 29, 56, 54, 61, 33, 31, 35, 36, 49, 36, 28, 43, 38, 18, 25, 36, 12, 18, 82, 41, 43, 71, 76, 53, 25, 75, 38, 29, 55, 35, 47, 32, 34, 30, 16, 31, 72, 44, 84, 46, 27, 26
              |8, 88, 30, 42, 38, 92, 74, 86, 127, 58, 6, 84, 29, 96, 92, 56, 91, 51, 38, 107, 99, 84, 79, 90, 89, 86, 54, 39, 99, 117, 46, 91, 80, 35, 53, 30, 76, 85, 17, 84, 34, 18, 73, 93, 66, 60, 94, 84, 105, 99, 95, 90, 34, 101, 63, 83, 102, 48, 53, 74, 19, 53, 74, 37, 85, 21, 130, 41, 44, 79, 100, 33, 54, 79, 67, 98, 49, 38, 115, 116, 81, 65, 78, 48, 71, 42, 86, 133, 68, 91, 89, 82, 60, 123, 90, 41, 15, 92, 33, 11, 88, 88, 54, 89, 86, 34, 106, 68, 7, 98, 110, 126, 55, 79, 82, 105, 117, 101, 28, 26, 36, 79, 49, 113, 99, 88, 43, 78, 113, 59, 83, 67, 51, 110, 53, 88, 39, 74, 82, 86, 73, 99, 133, 51, 100, 83, 89, 47, 85, 91, 95, 67, 99, 83, 98, 32, 49, 62, 93, 44, 54, 37, 107, 71, 90, 55, 73, 110, 112, 66, 47, 73, 59, 117, 84, 83, 11, 106, 76, 90, 88, 31, 109, 20, 78, 57, 43, 94, 114, 87, 87, 87, 93, 115, 95, 95, 95, 110, 97, 64
              |37, 48, 39, 16, 41, 59, 49, 70, 91, 42, 39, 44, 22, 58, 70, 39, 53, 28, 9, 69, 59, 55, 43, 58, 49, 59, 37, 43, 64, 83, 40, 53, 49, 17, 52, 17, 49, 75, 30, 58, 8, 23, 42, 71, 26, 30, 57, 63, 73, 61, 56, 65, 36, 64, 23, 74, 63, 24, 15, 43, 28, 14, 36, 25, 46, 19, 94, 10, 41, 42, 62, 40, 16, 73, 28, 70, 13, 18, 80, 77, 43, 61, 44, 8, 41, 3, 54, 97, 30, 76, 65, 75, 42, 89, 74, 3, 30, 54, 25, 34, 67, 62, 25, 51, 79, 24, 69, 58, 34, 63, 79, 90, 18, 39, 45, 67, 78, 61, 13, 37, 19, 47, 18, 81, 61, 52, 10, 43, 74, 22, 43, 32, 33, 71, 15, 50, 11, 34, 42, 46, 34, 66, 97, 39, 70, 59, 53, 48, 49, 69, 58, 37, 60, 64, 64, 16, 21, 36, 72, 47, 16, 8, 69, 32, 50, 18, 67, 72, 81, 57, 31, 50, 29, 82, 49, 60, 34, 67, 66, 54, 53, 20, 77, 24, 38, 25, 45, 76, 75, 69, 70, 48, 58, 83, 58, 55, 62, 71, 74, 43
              |96, 73, 63, 88, 55, 35, 25, 8, 67, 34, 86, 73, 64, 101, 7, 36, 95, 45, 82, 62, 85, 29, 95, 113, 69, 21, 38, 55, 47, 53, 46, 95, 33, 89, 43, 87, 26, 19, 95, 19, 79, 76, 36, 7, 73, 44, 57, 9, 38, 100, 95, 16, 58, 59, 76, 21, 75, 49, 61, 104, 73, 71, 88, 56, 68, 80, 69, 63, 49, 51, 64, 60, 80, 28, 80, 25, 60, 91, 51, 76, 91, 34, 40, 68, 34, 70, 36, 68, 83, 9, 12, 25, 32, 56, 6, 70, 77, 99, 59, 94, 6, 17, 94, 58, 25, 59, 59, 26, 89, 112, 36, 62, 82, 73, 55, 67, 75, 85, 72, 66, 59, 36, 88, 40, 99, 101, 62, 46, 71, 83, 70, 91, 42, 71, 79, 53, 84, 80, 80, 76, 60, 119, 70, 41, 29, 16, 49, 48, 49, 8, 103, 39, 95, 9, 42, 65, 51, 37, 4, 51, 79, 80, 61, 61, 67, 59, 28, 64, 37, 29, 45, 23, 45, 56, 44, 14, 94, 71, 22, 102, 107, 64, 37, 89, 69, 50, 51, 4, 75, 5, 6, 62, 46, 43, 104, 76, 115, 76, 10, 30
              |68, 19, 68, 33, 67, 50, 53, 78, 69, 57, 71, 15, 51, 29, 72, 55, 23, 44, 34, 47, 28, 50, 18, 36, 22, 58, 54, 69, 48, 65, 63, 23, 45, 40, 73, 43, 51, 87, 59, 59, 37, 55, 41, 73, 6, 37, 36, 69, 61, 31, 25, 64, 63, 42, 9, 87, 35, 42, 24, 28, 59, 18, 11, 50, 20, 50, 72, 35, 65, 29, 38, 68, 18, 89, 6, 64, 29, 38, 63, 51, 15, 79, 38, 25, 43, 30, 45, 76, 7, 84, 66, 88, 56, 71, 80, 31, 62, 25, 53, 64, 71, 62, 28, 30, 92, 51, 47, 73, 65, 37, 68, 71, 18, 10, 27, 42, 52, 30, 44, 66, 46, 42, 27, 69, 30, 25, 33, 33, 49, 15, 16, 16, 51, 45, 18, 33, 34, 3, 10, 16, 18, 42, 75, 58, 62, 61, 37, 72, 34, 71, 30, 38, 29, 70, 50, 45, 38, 45, 75, 72, 17, 35, 47, 17, 25, 24, 82, 49, 70, 74, 51, 56, 36, 63, 38, 63, 64, 41, 79, 27, 30, 49, 66, 53, 12, 32, 70, 81, 48, 75, 77, 26, 43, 70, 30, 26, 38, 43, 74, 54
              |96, 19, 83, 67, 79, 26, 44, 65, 34, 58, 95, 22, 70, 46, 54, 58, 41, 53, 65, 11, 26, 33, 48, 64, 15, 41, 58, 81, 17, 30, 71, 41, 31, 73, 78, 74, 40, 77, 89, 43, 66, 79, 33, 55, 38, 41, 4, 55, 30, 44, 39, 45, 77, 6, 42, 78, 14, 53, 44, 61, 81, 47, 45, 65, 16, 77, 36, 56, 74, 19, 4, 82, 52, 83, 42, 39, 48, 72, 28, 20, 43, 79, 26, 50, 37, 56, 25, 40, 43, 70, 49, 81, 57, 35, 66, 57, 84, 45, 69, 92, 55, 44, 64, 8, 83, 67, 11, 70, 91, 58, 38, 34, 53, 26, 15, 9, 21, 25, 69, 83, 63, 28, 61, 37, 42, 50, 54, 22, 16, 50, 21, 52, 58, 14, 51, 11, 65, 36, 31, 24, 25, 66, 39, 63, 35, 47, 12, 79, 15, 54, 48, 36, 38, 57, 21, 66, 51, 45, 58, 81, 51, 65, 11, 27, 12, 42, 78, 14, 39, 72, 59, 47, 41, 27, 19, 48, 92, 11, 73, 50, 57, 68, 35, 83, 24, 41, 79, 64, 18, 62, 64, 11, 15, 37, 49, 17, 63, 16, 54, 52
              |61, 54, 34, 53, 28, 36, 16, 33, 75, 7, 54, 52, 29, 78, 35, 6, 72, 9, 46, 59, 67, 28, 67, 86, 52, 28, 6, 30, 47, 63, 19, 72, 25, 53, 26, 51, 18, 39, 59, 26, 43, 41, 20, 36, 45, 13, 48, 27, 49, 79, 73, 32, 28, 54, 46, 38, 63, 13, 29, 73, 39, 39, 60, 21, 49, 45, 78, 27, 22, 34, 56, 32, 47, 39, 51, 41, 26, 55, 60, 72, 65, 30, 26, 34, 16, 34, 32, 79, 54, 39, 31, 39, 6, 68, 36, 34, 43, 75, 25, 59, 31, 30, 60, 45, 43, 24, 57, 23, 55, 87, 52, 72, 49, 50, 39, 60, 72, 69, 36, 36, 24, 26, 53, 56, 78, 75, 27, 30, 67, 51, 50, 60, 8, 65, 46, 41, 48, 53, 57, 56, 36, 92, 80, 11, 42, 25, 41, 27, 37, 34, 79, 16, 75, 27, 44, 29, 16, 7, 36, 29, 46, 45, 59, 36, 52, 27, 33, 62, 54, 24, 11, 15, 14, 64, 34, 25, 59, 63, 30, 77, 79, 28, 52, 54, 47, 18, 27, 39, 70, 32, 33, 46, 42, 59, 80, 60, 88, 68, 39, 6
              |102, 50, 77, 83, 71, 11, 28, 38, 36, 46, 96, 51, 71, 79, 24, 48, 73, 49, 78, 32, 59, 16, 77, 94, 46, 17, 49, 72, 17, 22, 61, 73, 21, 86, 64, 86, 25, 50, 98, 20, 77, 82, 28, 25, 59, 41, 30, 29, 7, 77, 72, 17, 72, 30, 63, 52, 47, 52, 55, 88, 81, 63, 71, 63, 45, 84, 38, 63, 64, 32, 36, 75, 70, 58, 65, 6, 56, 87, 20, 45, 72, 59, 25, 62, 30, 66, 16, 39, 67, 41, 21, 55, 44, 27, 37, 67, 86, 77, 67, 99, 27, 17, 84, 33, 56, 66, 28, 50, 96, 90, 9, 32, 72, 53, 34, 37, 44, 58, 75, 79, 64, 22, 80, 13, 75, 80, 61, 29, 40, 71, 49, 76, 51, 40, 69, 29, 80, 62, 60, 54, 43, 98, 40, 53, 2, 23, 25, 67, 27, 24, 80, 34, 71, 31, 13, 69, 52, 38, 28, 70, 69, 77, 31, 45, 43, 52, 56, 33, 12, 52, 54, 30, 42, 25, 23, 24, 99, 41, 49, 81, 87, 70, 8, 92, 49, 45, 69, 34, 45, 34, 36, 38, 19, 16, 81, 50, 94, 46, 22, 39
              |65, 42, 43, 49, 39, 28, 15, 39, 66, 19, 59, 40, 34, 67, 36, 18, 60, 13, 43, 48, 55, 21, 57, 76, 40, 25, 18, 40, 37, 55, 30, 60, 16, 51, 38, 50, 15, 48, 61, 24, 42, 45, 10, 37, 35, 4, 37, 31, 42, 67, 61, 31, 38, 43, 37, 47, 51, 15, 22, 65, 45, 32, 50, 27, 37, 47, 69, 26, 34, 22, 44, 42, 40, 49, 41, 36, 21, 52, 52, 60, 54, 41, 16, 28, 8, 31, 23, 71, 44, 45, 31, 49, 18, 60, 42, 31, 49, 64, 31, 62, 34, 28, 54, 33, 52, 30, 46, 34, 59, 76, 47, 63, 42, 38, 27, 49, 61, 57, 38, 44, 27, 16, 48, 50, 66, 64, 25, 18, 56, 43, 38, 52, 17, 54, 39, 29, 45, 42, 45, 44, 25, 82, 71, 23, 37, 25, 29, 39, 26, 35, 68, 4, 64, 31, 35, 32, 15, 5, 39, 40, 39, 42, 48, 25, 39, 19, 43, 51, 49, 35, 19, 17, 5, 55, 23, 26, 62, 51, 40, 66, 69, 33, 45, 55, 35, 10, 38, 43, 59, 37, 39, 34, 32, 52, 69, 48, 78, 56, 40, 14
              |98, 52, 72, 81, 65, 12, 23, 32, 42, 40, 92, 53, 67, 81, 19, 42, 75, 45, 76, 37, 62, 12, 77, 95, 48, 11, 44, 66, 21, 28, 55, 75, 18, 84, 58, 83, 20, 44, 95, 14, 75, 78, 25, 19, 59, 37, 33, 23, 13, 79, 74, 11, 66, 34, 62, 46, 50, 48, 53, 89, 77, 61, 72, 59, 47, 80, 45, 59, 59, 32, 40, 70, 69, 52, 65, 3, 54, 84, 26, 50, 73, 53, 24, 60, 26, 64, 16, 45, 67, 35, 15, 49, 39, 33, 32, 64, 81, 79, 63, 95, 21, 11, 83, 35, 50, 62, 33, 44, 92, 92, 14, 38, 71, 54, 35, 41, 49, 62, 71, 74, 60, 20, 78, 18, 77, 82, 58, 28, 45, 70, 50, 76, 46, 45, 68, 31, 77, 63, 61, 56, 43, 99, 46, 48, 4, 17, 27, 62, 28, 18, 82, 30, 74, 25, 17, 65, 48, 34, 22, 64, 68, 75, 35, 45, 45, 49, 49, 38, 16, 46, 49, 24, 38, 31, 23, 18, 95, 45, 43, 83, 88, 66, 14, 88, 50, 42, 63, 29, 50, 28, 30, 40, 22, 21, 83, 53, 96, 50, 17, 34
              |79, 8, 71, 48, 69, 35, 44, 68, 52, 52, 80, 7, 57, 35, 60, 52, 29, 43, 47, 30, 22, 37, 32, 49, 7, 46, 51, 71, 31, 48, 62, 29, 33, 54, 72, 57, 40, 79, 72, 47, 49, 64, 31, 61, 19, 33, 18, 58, 44, 35, 29, 52, 66, 25, 23, 79, 21, 42, 29, 44, 66, 29, 27, 53, 4, 61, 55, 41, 65, 15, 21, 71, 33, 82, 23, 49, 34, 53, 46, 35, 27, 75, 25, 34, 34, 39, 31, 59, 25, 74, 54, 81, 52, 53, 70, 40, 70, 33, 57, 75, 59, 49, 45, 13, 84, 55, 30, 68, 75, 46, 52, 53, 34, 8, 11, 26, 37, 23, 53, 71, 50, 30, 43, 52, 33, 36, 39, 20, 33, 31, 4, 33, 49, 30, 33, 16, 47, 18, 15, 11, 10, 53, 58, 56, 46, 50, 20, 72, 18, 59, 37, 31, 30, 59, 33, 52, 39, 39, 63, 72, 32, 48, 30, 11, 9, 27, 76, 32, 53, 69, 50, 47, 33, 46, 23, 52, 75, 25, 72, 37, 42, 55, 49, 66, 5, 30, 70, 69, 33, 65, 67, 8, 26, 53, 38, 15, 50, 29, 61, 48
              |71, 14, 66, 40, 64, 40, 45, 69, 61, 51, 72, 10, 50, 34, 63, 49, 28, 40, 38, 38, 26, 41, 27, 45, 15, 49, 48, 66, 38, 56, 59, 28, 35, 46, 69, 48, 42, 79, 64, 49, 41, 56, 32, 64, 10, 30, 27, 60, 51, 35, 29, 55, 61, 33, 15, 79, 29, 38, 22, 38, 60, 21, 21, 48, 12, 53, 64, 35, 61, 19, 29, 66, 24, 82, 15, 54, 27, 45, 53, 44, 23, 73, 28, 26, 35, 32, 35, 68, 17, 75, 57, 81, 50, 61, 72, 33, 63, 31, 51, 67, 62, 52, 36, 21, 84, 49, 38, 67, 68, 44, 58, 61, 26, 6, 17, 34, 45, 28, 46, 65, 44, 33, 34, 59, 34, 33, 33, 23, 41, 23, 9, 26, 46, 38, 24, 23, 39, 12, 13, 13, 9, 50, 67, 53, 52, 52, 27, 68, 24, 62, 36, 30, 32, 61, 40, 45, 34, 38, 66, 68, 24, 39, 38, 8, 17, 21, 76, 41, 60, 67, 46, 47, 30, 54, 28, 54, 67, 34, 72, 34, 38, 49, 56, 57, 4, 26, 66, 72, 42, 67, 69, 17, 33, 60, 36, 22, 46, 37, 65, 47
              |72, 36, 52, 52, 47, 21, 16, 41, 57, 26, 67, 35, 42, 62, 35, 26, 56, 21, 47, 40, 49, 16, 55, 73, 33, 22, 26, 49, 29, 47, 39, 56, 10, 56, 46, 55, 14, 51, 67, 22, 46, 52, 4, 36, 33, 11, 28, 32, 35, 62, 56, 29, 46, 34, 36, 51, 43, 23, 24, 64, 52, 33, 48, 35, 31, 53, 60, 32, 42, 14, 36, 51, 41, 54, 40, 31, 25, 56, 44, 52, 51, 48, 7, 31, 6, 35, 16, 62, 42, 47, 30, 53, 25, 52, 44, 36, 57, 59, 39, 69, 34, 26, 55, 25, 56, 38, 38, 40, 66, 72, 40, 55, 43, 33, 19, 40, 52, 50, 44, 53, 35, 9, 50, 43, 61, 61, 30, 10, 47, 43, 32, 51, 26, 46, 40, 21, 49, 39, 41, 38, 20, 79, 63, 31, 31, 25, 21, 47, 17, 35, 64, 4, 58, 33, 27, 39, 22, 13, 38, 49, 40, 47, 39, 21, 32, 21, 49, 42, 43, 41, 28, 19, 11, 47, 14, 26, 69, 43, 44, 62, 66, 40, 39, 61, 30, 14, 47, 44, 50, 39, 41, 27, 23, 45, 64, 41, 75, 48, 38, 21
              |74, 15, 73, 39, 73, 50, 56, 81, 66, 61, 77, 11, 57, 24, 74, 60, 17, 49, 39, 44, 22, 52, 16, 34, 19, 60, 59, 75, 47, 63, 68, 17, 47, 46, 78, 49, 53, 91, 65, 61, 43, 61, 43, 75, 12, 41, 34, 71, 61, 25, 19, 66, 69, 40, 15, 91, 30, 47, 30, 28, 65, 24, 11, 56, 17, 56, 69, 41, 70, 30, 34, 74, 24, 93, 11, 65, 35, 44, 61, 46, 12, 84, 39, 31, 46, 36, 46, 73, 11, 87, 68, 92, 61, 69, 83, 37, 68, 20, 58, 69, 73, 64, 32, 29, 96, 56, 45, 77, 71, 33, 68, 68, 24, 8, 27, 39, 48, 25, 50, 72, 51, 44, 32, 68, 25, 21, 39, 34, 45, 20, 13, 18, 56, 42, 24, 32, 39, 4, 4, 11, 20, 39, 72, 63, 62, 64, 36, 77, 34, 73, 25, 42, 23, 72, 49, 51, 43, 49, 77, 77, 23, 41, 44, 19, 22, 29, 87, 46, 70, 78, 56, 59, 40, 61, 38, 65, 69, 37, 83, 23, 27, 55, 66, 59, 11, 36, 75, 83, 44, 78, 80, 24, 42, 69, 25, 21, 35, 39, 76, 58
              |11, 74, 31, 28, 38, 82, 66, 81, 116, 53, 16, 70, 22, 81, 86, 50, 77, 43, 24, 95, 85, 75, 65, 77, 75, 78, 48, 39, 88, 107, 43, 77, 70, 21, 52, 16, 68, 83, 9, 76, 20, 10, 63, 87, 52, 50, 82, 78, 95, 85, 81, 83, 32, 89, 49, 81, 89, 39, 40, 61, 16, 40, 60, 30, 72, 8, 119, 29, 42, 67, 88, 34, 40, 78, 53, 90, 37, 25, 104, 103, 67, 64, 67, 35, 61, 29, 76, 122, 54, 87, 82, 81, 54, 112, 85, 28, 13, 78, 27, 8, 82, 80, 40, 77, 85, 27, 94, 65, 7, 84, 100, 115, 41, 65, 70, 93, 105, 87, 16, 27, 28, 69, 35, 103, 85, 74, 31, 67, 100, 45, 69, 53, 44, 97, 39, 76, 25, 60, 68, 72, 60, 86, 122, 46, 91, 76, 78, 47, 74, 85, 81, 57, 85, 77, 87, 22, 39, 53, 87, 44, 40, 23, 95, 58, 77, 43, 72, 98, 103, 63, 41, 66, 49, 106, 73, 76, 8, 93, 73, 76, 74, 23, 99, 7, 65, 46, 43, 89, 102, 82, 82, 74, 82, 106, 81, 82, 81, 97, 90, 57
              |95, 15, 84, 65, 80, 30, 47, 69, 36, 60, 94, 19, 70, 42, 58, 60, 37, 54, 63, 14, 21, 36, 44, 60, 11, 44, 60, 82, 21, 34, 72, 37, 34, 71, 80, 73, 43, 81, 88, 47, 65, 78, 35, 59, 35, 42, 8, 59, 35, 39, 35, 49, 78, 10, 40, 82, 10, 54, 44, 58, 81, 45, 41, 66, 13, 76, 39, 56, 75, 20, 4, 83, 49, 86, 39, 43, 48, 70, 32, 20, 39, 81, 28, 49, 39, 55, 29, 43, 40, 74, 53, 84, 59, 39, 70, 56, 84, 41, 70, 91, 59, 48, 61, 9, 86, 68, 15, 73, 91, 53, 42, 38, 50, 23, 15, 9, 21, 21, 68, 84, 63, 31, 59, 41, 38, 45, 54, 24, 16, 48, 17, 48, 59, 14, 49, 13, 64, 33, 27, 20, 24, 61, 42, 65, 40, 51, 16, 81, 17, 57, 44, 38, 34, 60, 25, 66, 51, 47, 62, 82, 49, 64, 14, 26, 9, 41, 81, 16, 43, 74, 61, 50, 43, 31, 22, 52, 91, 10, 76, 46, 52, 69, 40, 82, 21, 42, 80, 68, 18, 65, 68, 9, 19, 41, 45, 13, 58, 14, 58, 54
              |29, 56, 35, 16, 38, 66, 53, 73, 98, 44, 31, 52, 18, 65, 74, 41, 60, 31, 9, 77, 67, 60, 49, 63, 57, 65, 39, 40, 71, 90, 39, 60, 55, 14, 50, 11, 54, 77, 23, 63, 4, 16, 48, 75, 34, 35, 64, 67, 80, 68, 63, 70, 33, 71, 31, 76, 71, 27, 23, 47, 22, 22, 43, 24, 54, 11, 101, 13, 39, 50, 70, 36, 23, 74, 35, 76, 20, 16, 87, 85, 50, 61, 51, 16, 47, 11, 60, 104, 37, 79, 69, 76, 45, 96, 76, 10, 23, 61, 23, 26, 71, 67, 28, 59, 80, 22, 76, 59, 25, 69, 85, 98, 24, 47, 52, 75, 86, 69, 7, 32, 18, 54, 21, 88, 68, 58, 15, 50, 82, 28, 51, 37, 35, 79, 22, 58, 11, 42, 50, 54, 42, 72, 104, 39, 76, 63, 60, 46, 56, 73, 65, 42, 68, 67, 70, 13, 25, 40, 76, 45, 23, 7, 77, 40, 59, 26, 67, 80, 87, 58, 32, 54, 34, 89, 56, 64, 26, 75, 67, 60, 59, 17, 84, 16, 47, 30, 43, 79, 83, 72, 73, 56, 65, 90, 65, 64, 67, 79, 78, 46
              |43, 69, 12, 48, 8, 58, 37, 47, 97, 20, 33, 66, 14, 88, 54, 18, 82, 19, 41, 80, 82, 50, 74, 91, 68, 50, 16, 10, 68, 85, 8, 82, 46, 46, 18, 42, 40, 48, 44, 47, 36, 25, 41, 55, 53, 30, 68, 45, 71, 90, 84, 53, 6, 74, 53, 46, 81, 19, 35, 76, 20, 43, 67, 9, 65, 31, 99, 26, 7, 52, 75, 11, 49, 43, 58, 62, 30, 48, 82, 91, 73, 29, 47, 36, 37, 33, 54, 101, 61, 53, 51, 46, 22, 90, 51, 32, 24, 84, 9, 42, 50, 51, 59, 64, 50, 11, 78, 30, 37, 95, 74, 94, 51, 62, 57, 80, 92, 84, 26, 14, 15, 47, 52, 78, 89, 83, 27, 49, 87, 54, 64, 64, 14, 85, 48, 60, 43, 62, 68, 69, 51, 99, 102, 13, 64, 45, 61, 14, 57, 53, 89, 36, 87, 44, 66, 19, 22, 28, 54, 13, 49, 39, 79, 50, 68, 36, 37, 82, 76, 28, 12, 36, 30, 86, 54, 45, 42, 82, 38, 85, 86, 15, 74, 40, 60, 31, 11, 55, 90, 48, 49, 64, 63, 81, 89, 76, 94, 87, 59, 26
              |95, 21, 81, 67, 76, 22, 41, 62, 33, 55, 93, 24, 68, 49, 50, 55, 44, 50, 64, 11, 29, 29, 50, 66, 17, 37, 56, 78, 13, 28, 68, 44, 27, 72, 75, 74, 37, 74, 88, 39, 66, 77, 30, 51, 38, 39, 1, 51, 27, 47, 42, 42, 75, 6, 43, 75, 17, 51, 43, 63, 79, 47, 46, 63, 18, 76, 36, 55, 71, 17, 7, 80, 52, 79, 43, 35, 47, 72, 26, 22, 45, 75, 23, 50, 34, 55, 22, 40, 44, 66, 45, 77, 54, 34, 63, 56, 83, 48, 67, 91, 51, 40, 64, 7, 79, 65, 11, 67, 90, 61, 35, 34, 53, 27, 13, 11, 23, 28, 68, 81, 61, 25, 62, 34, 45, 52, 53, 20, 18, 51, 22, 53, 55, 16, 51, 9, 65, 37, 33, 26, 24, 69, 39, 61, 32, 43, 9, 77, 12, 50, 51, 34, 41, 53, 17, 64, 49, 42, 54, 78, 51, 65, 11, 26, 14, 40, 75, 14, 36, 68, 57, 44, 39, 26, 16, 45, 91, 14, 69, 53, 59, 67, 32, 82, 25, 39, 76, 61, 21, 58, 60, 11, 11, 35, 52, 21, 66, 19, 50, 49
              |122, 48, 103, 95, 97, 33, 55, 68, 6, 73, 118, 51, 93, 72, 54, 74, 68, 73, 92, 19, 50, 42, 77, 91, 44, 46, 75, 98, 23, 8, 88, 68, 44, 101, 92, 102, 52, 80, 116, 49, 94, 103, 50, 54, 67, 62, 30, 59, 23, 69, 65, 47, 97, 23, 71, 82, 36, 74, 70, 90, 104, 75, 74, 87, 46, 103, 9, 81, 91, 43, 28, 101, 80, 88, 71, 36, 74, 100, 10, 24, 72, 89, 44, 77, 53, 83, 37, 11, 72, 70, 51, 85, 72, 9, 67, 83, 108, 72, 91, 118, 57, 47, 93, 36, 86, 89, 18, 80, 117, 83, 26, 5, 82, 55, 41, 25, 22, 48, 94, 104, 86, 44, 90, 22, 67, 77, 79, 44, 22, 79, 50, 81, 76, 24, 80, 35, 93, 66, 60, 53, 52, 92, 11, 80, 32, 53, 33, 95, 37, 54, 74, 55, 63, 61, 25, 90, 73, 63, 57, 97, 80, 93, 18, 55, 41, 67, 86, 17, 25, 82, 79, 58, 63, 5, 38, 54, 118, 28, 79, 77, 84, 92, 24, 109, 53, 64, 96, 63, 26, 64, 66, 40, 28, 20, 75, 44, 89, 30, 51, 66
              |34, 51, 42, 10, 45, 65, 55, 76, 96, 47, 38, 47, 25, 58, 76, 45, 53, 34, 3, 74, 61, 60, 42, 56, 52, 65, 43, 47, 69, 88, 45, 53, 55, 11, 56, 11, 55, 81, 26, 64, 4, 23, 48, 77, 28, 36, 61, 69, 79, 61, 57, 71, 39, 68, 25, 80, 66, 30, 21, 40, 29, 16, 36, 29, 49, 17, 98, 16, 45, 47, 66, 43, 16, 79, 29, 76, 19, 12, 85, 81, 43, 66, 50, 13, 47, 9, 59, 102, 30, 82, 71, 80, 48, 94, 79, 9, 30, 54, 29, 30, 73, 68, 21, 55, 84, 28, 73, 64, 31, 62, 84, 95, 17, 42, 49, 71, 82, 64, 14, 39, 24, 53, 14, 87, 62, 51, 16, 48, 78, 21, 46, 30, 39, 75, 15, 55, 5, 36, 44, 48, 38, 64, 101, 44, 76, 65, 58, 52, 54, 75, 58, 43, 61, 70, 69, 19, 27, 42, 78, 51, 16, 2, 74, 36, 54, 24, 72, 76, 87, 63, 36, 56, 35, 87, 55, 66, 30, 71, 71, 53, 52, 23, 83, 20, 42, 30, 49, 82, 79, 75, 76, 52, 63, 89, 58, 58, 60, 74, 80, 49
              |98, 69, 67, 88, 59, 30, 24, 15, 60, 36, 90, 69, 66, 98, 3, 39, 91, 46, 82, 56, 80, 25, 92, 111, 65, 17, 41, 60, 41, 46, 50, 91, 30, 90, 48, 88, 25, 26, 97, 16, 80, 79, 34, 2, 71, 43, 52, 11, 32, 96, 91, 11, 62, 53, 74, 28, 69, 50, 61, 102, 76, 71, 86, 58, 64, 82, 62, 64, 53, 47, 59, 65, 79, 35, 78, 19, 60, 91, 44, 69, 88, 40, 37, 67, 33, 70, 32, 61, 81, 16, 9, 32, 35, 49, 13, 70, 80, 95, 62, 96, 7, 13, 93, 53, 32, 61, 53, 32, 92, 108, 29, 55, 81, 69, 51, 61, 69, 80, 74, 70, 61, 33, 87, 33, 95, 98, 63, 43, 64, 81, 66, 89, 45, 65, 78, 48, 84, 77, 77, 73, 57, 115, 63, 44, 23, 14, 45, 53, 45, 4, 99, 38, 91, 12, 36, 67, 52, 37, 3, 56, 78, 81, 55, 58, 63, 58, 34, 57, 30, 35, 48, 23, 44, 49, 40, 13, 96, 65, 28, 99, 104, 66, 30, 91, 66, 49, 56, 9, 69, 11, 13, 57, 41, 36, 100, 71, 112, 70, 3, 32
              |75, 40, 52, 57, 47, 18, 11, 36, 56, 24, 69, 39, 44, 67, 30, 25, 61, 23, 52, 41, 53, 12, 60, 78, 37, 17, 25, 48, 28, 45, 38, 61, 6, 60, 44, 59, 9, 46, 71, 17, 51, 55, 1, 31, 38, 13, 30, 26, 32, 67, 61, 23, 47, 35, 41, 47, 46, 25, 29, 69, 54, 38, 53, 37, 35, 56, 59, 35, 41, 18, 38, 51, 47, 50, 45, 27, 30, 61, 42, 53, 56, 45, 8, 36, 3, 40, 14, 61, 48, 42, 24, 49, 23, 50, 38, 40, 59, 64, 41, 72, 29, 20, 61, 28, 52, 40, 38, 36, 69, 77, 37, 54, 49, 38, 23, 42, 53, 54, 47, 54, 37, 7, 55, 40, 66, 66, 34, 13, 48, 49, 36, 56, 26, 47, 45, 23, 53, 45, 46, 43, 25, 84, 62, 30, 27, 19, 22, 46, 19, 29, 69, 6, 62, 28, 25, 42, 25, 13, 33, 48, 46, 51, 40, 26, 36, 26, 45, 43, 39, 38, 28, 14, 14, 45, 15, 21, 72, 45, 40, 67, 72, 43, 36, 64, 35, 18, 46, 39, 52, 33, 35, 30, 23, 42, 69, 45, 80, 50, 33, 18
              |106, 21, 99, 72, 96, 48, 65, 87, 41, 78, 107, 25, 84, 33, 76, 77, 30, 70, 72, 24, 13, 55, 42, 53, 20, 63, 77, 98, 38, 45, 89, 30, 52, 79, 97, 82, 61, 99, 97, 65, 75, 91, 53, 77, 43, 59, 26, 77, 50, 29, 27, 67, 94, 25, 47, 100, 9, 69, 56, 56, 94, 55, 42, 81, 24, 87, 43, 69, 92, 37, 19, 99, 57, 104, 44, 60, 61, 77, 44, 17, 37, 99, 47, 61, 57, 66, 47, 48, 44, 92, 71, 102, 77, 48, 88, 67, 97, 34, 84, 102, 77, 66, 65, 27, 105, 82, 27, 91, 102, 44, 57, 45, 57, 30, 32, 18, 19, 10, 80, 99, 78, 50, 65, 55, 27, 40, 67, 42, 19, 53, 26, 50, 76, 16, 57, 32, 72, 37, 29, 23, 37, 52, 46, 82, 57, 69, 34, 98, 36, 75, 35, 55, 23, 79, 42, 79, 66, 64, 80, 99, 56, 73, 25, 39, 20, 55, 99, 25, 58, 92, 77, 68, 59, 41, 40, 70, 102, 14, 94, 39, 46, 82, 55, 91, 30, 57, 97, 86, 15, 84, 86, 25, 37, 55, 36, 13, 50, 10, 76, 72
              |98, 14, 93, 63, 91, 49, 64, 87, 49, 74, 100, 17, 78, 25, 77, 74, 21, 65, 64, 29, 3, 54, 33, 44, 16, 63, 73, 93, 40, 51, 84, 21, 51, 70, 94, 73, 60, 98, 89, 65, 67, 84, 51, 77, 35, 55, 27, 77, 54, 21, 18, 68, 88, 28, 38, 99, 11, 64, 50, 47, 87, 47, 33, 75, 18, 79, 51, 62, 87, 35, 21, 93, 48, 102, 35, 62, 55, 68, 49, 25, 28, 96, 45, 53, 55, 59, 47, 56, 35, 92, 71, 101, 73, 55, 88, 60, 90, 25, 78, 93, 77, 66, 56, 26, 104, 76, 32, 89, 94, 36, 61, 52, 48, 22, 30, 23, 27, 1, 73, 93, 71, 48, 56, 60, 19, 31, 60, 39, 26, 44, 19, 41, 72, 23, 48, 31, 64, 28, 20, 15, 32, 44, 54, 78, 59, 69, 34, 94, 35, 76, 27, 52, 15, 78, 44, 72, 61, 61, 80, 94, 48, 65, 30, 33, 17, 48, 97, 31, 62, 90, 72, 67, 55, 47, 40, 70, 93, 19, 93, 30, 37, 76, 59, 83, 23, 52, 92, 87, 23, 83, 86, 22, 38, 60, 28, 8, 42, 18, 77, 69
              |70, 16, 63, 40, 61, 36, 40, 65, 60, 47, 71, 13, 48, 39, 59, 45, 32, 36, 38, 37, 29, 37, 31, 49, 16, 45, 45, 63, 36, 54, 55, 32, 31, 46, 65, 48, 38, 75, 63, 45, 40, 55, 28, 60, 12, 26, 25, 56, 48, 39, 33, 51, 58, 32, 16, 75, 30, 34, 20, 41, 58, 21, 25, 45, 13, 52, 62, 33, 58, 15, 29, 63, 25, 77, 18, 50, 25, 45, 51, 44, 27, 69, 24, 25, 30, 31, 32, 66, 20, 71, 53, 77, 46, 59, 68, 31, 61, 35, 48, 67, 58, 48, 38, 19, 80, 46, 37, 62, 66, 48, 55, 60, 27, 10, 14, 34, 45, 31, 44, 63, 41, 29, 35, 56, 38, 37, 30, 19, 41, 25, 11, 29, 42, 38, 25, 21, 39, 16, 17, 16, 4, 55, 66, 49, 49, 48, 24, 64, 21, 58, 40, 26, 35, 57, 37, 43, 31, 34, 62, 65, 25, 39, 37, 4, 17, 18, 72, 40, 57, 63, 43, 43, 26, 52, 24, 50, 67, 34, 68, 38, 42, 46, 53, 57, 7, 23, 63, 68, 42, 63, 65, 16, 30, 57, 40, 24, 51, 38, 61, 43
              |101, 17, 91, 69, 88, 37, 55, 76, 35, 68, 101, 21, 77, 39, 65, 68, 35, 62, 68, 15, 17, 44, 44, 58, 15, 52, 68, 90, 27, 36, 80, 35, 42, 76, 88, 78, 51, 88, 93, 54, 71, 85, 43, 66, 40, 50, 15, 66, 40, 36, 32, 57, 86, 14, 44, 89, 3, 61, 50, 58, 87, 51, 43, 73, 18, 82, 38, 63, 83, 28, 8, 91, 54, 94, 42, 50, 55, 74, 35, 14, 39, 89, 36, 55, 47, 61, 36, 42, 43, 81, 60, 92, 67, 40, 77, 62, 91, 39, 77, 97, 66, 55, 64, 17, 94, 75, 17, 81, 97, 51, 47, 38, 55, 26, 23, 8, 16, 16, 75, 91, 71, 39, 63, 46, 34, 44, 60, 32, 13, 51, 21, 51, 67, 9, 54, 21, 69, 36, 29, 21, 30, 59, 41, 73, 46, 58, 23, 89, 25, 65, 41, 46, 30, 68, 31, 73, 59, 55, 69, 90, 53, 69, 16, 32, 13, 48, 89, 16, 48, 82, 68, 58, 50, 33, 30, 60, 97, 5, 84, 44, 51, 76, 45, 87, 25, 49, 88, 75, 12, 73, 75, 16, 26, 45, 42, 11, 56, 7, 65, 62
              |48, 37, 50, 17, 51, 55, 49, 73, 83, 47, 51, 33, 33, 46, 70, 44, 41, 33, 15, 61, 47, 52, 31, 48, 38, 58, 43, 53, 57, 76, 49, 41, 46, 23, 60, 25, 49, 80, 40, 58, 18, 35, 40, 71, 14, 30, 48, 65, 68, 49, 44, 64, 46, 55, 11, 79, 52, 29, 13, 33, 40, 3, 25, 34, 35, 30, 86, 18, 50, 35, 52, 51, 6, 79, 16, 67, 15, 22, 73, 67, 31, 68, 40, 8, 40, 11, 50, 89, 18, 79, 65, 80, 47, 82, 76, 12, 42, 42, 35, 44, 68, 61, 20, 42, 84, 34, 60, 64, 45, 52, 75, 83, 9, 28, 37, 57, 69, 50, 25, 48, 29, 44, 14, 76, 49, 40, 17, 37, 64, 11, 32, 21, 39, 62, 5, 43, 16, 22, 30, 34, 26, 55, 89, 45, 66, 59, 46, 57, 42, 69, 47, 35, 48, 65, 58, 27, 26, 38, 73, 56, 6, 16, 61, 23, 40, 15, 73, 63, 77, 63, 37, 51, 29, 75, 44, 60, 44, 57, 71, 42, 43, 31, 73, 34, 28, 24, 54, 77, 65, 71, 73, 39, 52, 78, 47, 44, 51, 60, 74, 46
              |42, 65, 15, 44, 12, 56, 36, 48, 94, 20, 33, 62, 11, 84, 54, 17, 78, 16, 37, 77, 78, 48, 70, 86, 64, 49, 16, 15, 66, 83, 11, 78, 44, 42, 22, 38, 39, 50, 42, 46, 32, 23, 38, 55, 49, 27, 65, 46, 69, 85, 80, 52, 9, 71, 48, 49, 77, 15, 31, 72, 19, 38, 63, 5, 61, 28, 97, 21, 11, 49, 72, 14, 45, 46, 53, 61, 26, 44, 80, 88, 69, 33, 44, 31, 35, 29, 52, 99, 56, 54, 51, 48, 22, 88, 52, 28, 23, 80, 6, 40, 50, 50, 54, 60, 52, 7, 75, 32, 36, 90, 73, 92, 47, 58, 54, 77, 89, 80, 22, 16, 11, 45, 47, 76, 85, 79, 22, 46, 83, 50, 60, 60, 13, 82, 44, 57, 39, 58, 64, 65, 47, 94, 100, 13, 63, 45, 58, 18, 54, 53, 84, 33, 83, 45, 63, 15, 18, 26, 55, 17, 44, 35, 76, 46, 64, 31, 40, 79, 75, 31, 10, 36, 27, 83, 51, 45, 40, 79, 40, 80, 81, 12, 72, 37, 56, 27, 15, 56, 86, 49, 50, 60, 60, 79, 84, 72, 90, 83, 59, 26
              |38, 73, 6, 47, 7, 64, 44, 53, 103, 27, 27, 70, 13, 90, 60, 24, 85, 24, 40, 85, 86, 56, 76, 92, 72, 56, 23, 9, 74, 91, 13, 85, 52, 44, 22, 39, 47, 53, 40, 53, 35, 21, 47, 61, 56, 35, 73, 51, 77, 93, 87, 59, 1, 79, 55, 51, 85, 24, 38, 77, 15, 45, 69, 12, 69, 28, 105, 27, 11, 58, 80, 6, 51, 47, 60, 69, 33, 47, 88, 96, 76, 33, 53, 38, 43, 34, 60, 107, 63, 58, 57, 50, 28, 96, 57, 33, 19, 87, 9, 37, 56, 57, 59, 69, 54, 11, 83, 35, 32, 96, 81, 100, 52, 66, 62, 85, 97, 88, 24, 8, 16, 53, 52, 84, 92, 85, 29, 55, 92, 56, 68, 66, 21, 90, 49, 66, 43, 65, 71, 73, 55, 100, 108, 19, 71, 52, 66, 16, 62, 59, 91, 42, 91, 51, 72, 19, 26, 34, 60, 14, 50, 38, 85, 54, 73, 39, 41, 88, 83, 33, 18, 43, 35, 92, 60, 52, 37, 87, 43, 87, 87, 14, 80, 36, 64, 36, 12, 61, 95, 54, 54, 68, 69, 87, 91, 80, 96, 92, 65, 33
              |75, 14, 74, 40, 74, 50, 56, 81, 65, 61, 78, 10, 58, 23, 74, 60, 17, 50, 41, 42, 21, 51, 16, 34, 17, 60, 59, 76, 46, 62, 69, 17, 46, 47, 79, 51, 53, 91, 66, 60, 45, 62, 43, 75, 13, 41, 33, 71, 60, 24, 19, 66, 70, 38, 16, 91, 29, 47, 30, 29, 66, 25, 12, 57, 16, 57, 68, 42, 71, 29, 33, 75, 25, 93, 12, 64, 35, 45, 60, 45, 12, 84, 39, 32, 46, 37, 46, 72, 12, 87, 68, 92, 61, 68, 83, 38, 69, 20, 59, 71, 73, 63, 33, 28, 96, 57, 44, 78, 72, 33, 67, 67, 25, 7, 26, 37, 47, 23, 52, 73, 52, 44, 33, 67, 24, 21, 40, 34, 43, 21, 12, 20, 56, 40, 25, 32, 41, 5, 3, 9, 20, 39, 71, 63, 62, 64, 36, 78, 34, 73, 24, 42, 22, 72, 49, 52, 44, 49, 77, 78, 25, 42, 43, 19, 20, 30, 87, 45, 69, 78, 56, 59, 41, 60, 38, 65, 71, 36, 83, 23, 27, 56, 65, 60, 11, 37, 76, 83, 43, 78, 80, 23, 42, 68, 25, 20, 35, 37, 76, 58
              |91, 32, 98, 55, 98, 72, 81, 106, 77, 87, 97, 31, 81, 3, 98, 86, 9, 75, 58, 57, 25, 76, 17, 17, 36, 84, 85, 100, 66, 78, 94, 9, 71, 62, 104, 66, 78, 116, 81, 85, 63, 82, 69, 99, 37, 67, 52, 96, 80, 7, 10, 90, 93, 55, 37, 116, 39, 72, 55, 26, 87, 47, 23, 81, 37, 76, 79, 65, 96, 53, 49, 98, 43, 119, 32, 86, 59, 59, 77, 53, 16, 110, 64, 55, 72, 59, 69, 84, 30, 112, 92, 118, 87, 83, 108, 60, 89, 6, 83, 87, 98, 88, 43, 49, 121, 81, 59, 103, 89, 8, 87, 80, 42, 32, 49, 51, 55, 27, 72, 96, 76, 68, 47, 87, 9, 8, 63, 58, 54, 38, 34, 29, 82, 51, 44, 53, 57, 28, 24, 28, 45, 16, 82, 89, 84, 89, 57, 103, 56, 97, 1, 67, 13, 98, 69, 74, 69, 75, 102, 103, 43, 60, 58, 45, 39, 55, 113, 59, 89, 104, 81, 84, 67, 75, 61, 90, 87, 47, 109, 6, 12, 79, 85, 77, 35, 62, 100, 108, 51, 103, 105, 44, 63, 87, 1, 32, 14, 46, 100, 84
              |79, 66, 47, 73, 39, 35, 15, 12, 72, 17, 70, 65, 48, 93, 18, 20, 87, 29, 66, 62, 79, 26, 84, 103, 63, 20, 22, 39, 47, 59, 30, 87, 28, 74, 28, 71, 18, 21, 78, 17, 64, 60, 27, 19, 62, 31, 54, 9, 43, 93, 87, 20, 42, 58, 64, 21, 71, 34, 48, 92, 56, 58, 77, 39, 61, 64, 75, 48, 33, 44, 62, 44, 67, 24, 69, 31, 46, 75, 56, 76, 81, 23, 34, 53, 24, 55, 34, 75, 71, 19, 17, 23, 16, 63, 16, 55, 60, 90, 43, 77, 14, 19, 80, 53, 26, 42, 59, 14, 73, 103, 44, 68, 69, 64, 49, 65, 75, 80, 56, 50, 43, 30, 73, 48, 92, 91, 47, 39, 71, 70, 62, 79, 26, 70, 65, 48, 69, 69, 72, 69, 50, 109, 76, 24, 35, 13, 46, 33, 44, 17, 94, 28, 88, 8, 43, 49, 36, 23, 18, 36, 66, 65, 61, 51, 62, 46, 20, 64, 46, 16, 29, 12, 31, 61, 39, 13, 77, 69, 15, 93, 96, 47, 44, 73, 60, 37, 36, 19, 75, 12, 13, 56, 45, 51, 95, 71, 105, 74, 23, 15
              |61, 34, 46, 40, 43, 33, 26, 50, 67, 28, 58, 32, 33, 57, 46, 26, 51, 17, 35, 47, 48, 28, 47, 65, 33, 34, 26, 45, 38, 57, 36, 51, 22, 43, 46, 43, 25, 58, 56, 33, 35, 43, 16, 47, 24, 8, 34, 41, 47, 58, 52, 40, 41, 41, 26, 58, 46, 16, 12, 54, 44, 21, 40, 28, 30, 42, 69, 21, 39, 18, 41, 46, 30, 60, 31, 44, 13, 44, 54, 57, 44, 51, 18, 19, 16, 23, 27, 72, 33, 56, 41, 59, 27, 63, 53, 24, 47, 54, 32, 58, 44, 37, 44, 29, 63, 30, 45, 44, 56, 66, 52, 65, 32, 29, 22, 46, 58, 49, 33, 46, 26, 21, 38, 55, 57, 54, 19, 17, 53, 32, 29, 41, 24, 51, 29, 27, 37, 32, 36, 35, 16, 72, 72, 30, 43, 35, 28, 46, 24, 45, 58, 11, 54, 42, 37, 29, 14, 16, 49, 46, 29, 34, 46, 16, 33, 9, 53, 49, 54, 45, 24, 28, 7, 57, 23, 36, 58, 47, 50, 56, 59, 31, 51, 49, 26, 4, 44, 54, 55, 48, 50, 29, 33, 57, 59, 41, 67, 52, 50, 25
              |83, 15, 71, 55, 68, 25, 37, 61, 45, 49, 82, 16, 58, 44, 52, 48, 38, 41, 52, 23, 27, 29, 41, 59, 11, 37, 48, 69, 22, 40, 60, 38, 25, 60, 68, 62, 34, 72, 76, 39, 54, 66, 25, 52, 26, 30, 11, 51, 35, 43, 37, 43, 66, 18, 31, 73, 21, 41, 31, 53, 68, 34, 36, 53, 10, 64, 48, 44, 63, 8, 16, 70, 40, 76, 31, 40, 36, 59, 37, 32, 36, 70, 18, 37, 28, 43, 22, 52, 33, 66, 46, 75, 48, 45, 62, 44, 72, 42, 57, 79, 52, 41, 52, 5, 78, 55, 23, 62, 79, 55, 42, 46, 41, 17, 3, 21, 33, 28, 56, 71, 51, 22, 50, 43, 41, 45, 41, 13, 28, 39, 13, 42, 47, 26, 39, 7, 53, 27, 24, 19, 12, 62, 51, 53, 37, 43, 11, 69, 9, 51, 45, 26, 37, 52, 24, 53, 39, 35, 55, 70, 39, 52, 23, 14, 10, 29, 71, 26, 44, 64, 48, 40, 30, 38, 14, 44, 79, 22, 66, 46, 51, 56, 40, 70, 14, 29, 68, 62, 30, 58, 60, 4, 17, 44, 46, 19, 59, 27, 53, 43
              |75, 55, 47, 65, 40, 27, 4, 22, 65, 15, 67, 54, 43, 82, 21, 17, 75, 22, 58, 53, 68, 17, 73, 92, 52, 15, 19, 41, 38, 52, 30, 75, 17, 66, 33, 64, 8, 32, 73, 12, 56, 55, 16, 22, 51, 20, 44, 14, 38, 81, 76, 18, 41, 48, 53, 32, 60, 26, 38, 81, 53, 48, 66, 35, 50, 58, 68, 40, 33, 33, 52, 45, 57, 35, 58, 28, 37, 67, 50, 66, 70, 31, 22, 44, 13, 46, 24, 69, 60, 29, 17, 34, 13, 57, 25, 46, 57, 79, 39, 73, 18, 16, 70, 42, 37, 38, 50, 22, 69, 91, 40, 62, 59, 52, 38, 55, 66, 68, 50, 49, 37, 19, 64, 44, 80, 80, 39, 28, 61, 60, 51, 68, 21, 60, 55, 37, 60, 58, 60, 57, 39, 98, 70, 23, 30, 11, 36, 36, 33, 20, 83, 17, 77, 15, 35, 43, 28, 13, 23, 39, 56, 57, 52, 40, 51, 35, 30, 55, 42, 24, 25, 1, 21, 54, 29, 11, 73, 59, 25, 81, 85, 42, 39, 67, 49, 27, 37, 27, 65, 21, 22, 45, 35, 47, 84, 60, 94, 64, 25, 9
              |103, 70, 72, 92, 64, 30, 28, 19, 57, 41, 94, 71, 71, 99, 8, 44, 93, 51, 86, 56, 81, 27, 94, 113, 66, 19, 46, 65, 40, 44, 55, 93, 32, 94, 53, 92, 28, 30, 101, 19, 84, 84, 37, 7, 74, 47, 52, 16, 30, 98, 92, 13, 67, 53, 77, 32, 70, 55, 64, 104, 80, 74, 88, 63, 65, 87, 59, 68, 58, 49, 59, 70, 82, 39, 81, 17, 64, 95, 42, 68, 90, 45, 39, 71, 36, 74, 33, 58, 83, 19, 12, 35, 40, 46, 17, 74, 85, 97, 67, 101, 12, 16, 96, 54, 36, 66, 52, 37, 97, 110, 26, 52, 85, 71, 53, 60, 68, 81, 78, 75, 66, 35, 91, 30, 96, 99, 67, 45, 64, 84, 68, 92, 49, 64, 81, 49, 88, 79, 79, 74, 59, 117, 60, 49, 21, 18, 45, 58, 46, 9, 101, 41, 92, 17, 36, 72, 56, 41, 8, 61, 81, 85, 54, 61, 64, 62, 39, 56, 27, 40, 52, 27, 48, 47, 41, 17, 101, 65, 33, 100, 106, 71, 27, 96, 68, 53, 61, 12, 68, 16, 17, 58, 41, 33, 102, 72, 113, 69, 3, 36
              |75, 16, 65, 46, 62, 31, 37, 62, 54, 45, 74, 14, 51, 42, 54, 44, 35, 36, 43, 32, 29, 32, 36, 54, 14, 40, 44, 64, 30, 48, 55, 35, 27, 52, 64, 53, 34, 72, 68, 41, 45, 58, 24, 55, 18, 25, 19, 52, 42, 41, 36, 46, 59, 26, 23, 72, 27, 35, 23, 47, 61, 26, 30, 47, 11, 56, 57, 36, 58, 9, 24, 64, 31, 75, 24, 45, 28, 51, 45, 40, 32, 68, 19, 29, 27, 35, 26, 61, 26, 67, 48, 74, 45, 53, 64, 36, 64, 39, 50, 71, 53, 44, 44, 14, 77, 48, 32, 60, 70, 52, 49, 54, 33, 13, 8, 29, 41, 30, 48, 65, 44, 24, 41, 50, 40, 41, 34, 14, 36, 31, 11, 35, 42, 34, 31, 15, 44, 21, 21, 17, 4, 59, 60, 49, 43, 44, 18, 64, 15, 53, 43, 24, 37, 53, 31, 46, 32, 32, 57, 65, 30, 44, 32, 6, 14, 21, 69, 35, 51, 61, 43, 40, 25, 46, 18, 45, 71, 30, 65, 42, 47, 49, 47, 62, 9, 23, 63, 63, 38, 59, 61, 11, 24, 51, 44, 22, 55, 34, 56, 41
              |123, 43, 108, 94, 103, 40, 63, 78, 11, 80, 121, 47, 97, 64, 65, 81, 61, 77, 92, 17, 42, 49, 71, 83, 40, 55, 81, 104, 29, 21, 94, 61, 51, 100, 99, 102, 59, 91, 117, 58, 94, 106, 55, 65, 65, 66, 30, 69, 34, 60, 57, 57, 102, 23, 69, 92, 29, 78, 72, 85, 107, 74, 69, 91, 43, 104, 12, 83, 97, 45, 25, 107, 79, 98, 68, 47, 75, 99, 22, 14, 66, 98, 49, 78, 59, 83, 43, 17, 69, 81, 61, 95, 79, 21, 78, 84, 111, 64, 95, 120, 67, 57, 90, 35, 97, 93, 18, 88, 119, 75, 38, 16, 80, 52, 42, 20, 12, 40, 96, 109, 89, 49, 88, 34, 58, 70, 81, 47, 14, 77, 47, 77, 82, 17, 79, 37, 93, 62, 55, 48, 52, 83, 15, 86, 43, 62, 35, 102, 39, 65, 66, 60, 54, 71, 32, 93, 77, 68, 68, 104, 78, 93, 17, 54, 38, 69, 95, 14, 38, 91, 84, 66, 67, 17, 42, 63, 120, 22, 89, 70, 77, 95, 36, 110, 50, 67, 102, 75, 16, 74, 77, 38, 33, 32, 67, 38, 81, 21, 63, 73
              |129, 56, 109, 103, 103, 38, 60, 70, 7, 78, 125, 60, 100, 80, 56, 80, 76, 79, 100, 27, 58, 47, 85, 99, 52, 50, 81, 104, 30, 12, 93, 76, 50, 109, 97, 110, 57, 82, 123, 53, 101, 110, 56, 56, 75, 69, 38, 62, 27, 76, 73, 50, 103, 32, 79, 84, 44, 81, 78, 98, 110, 83, 82, 93, 54, 110, 7, 89, 97, 51, 37, 107, 89, 91, 79, 39, 81, 108, 14, 31, 80, 93, 51, 85, 59, 90, 43, 5, 81, 72, 54, 87, 77, 7, 69, 91, 115, 80, 97, 126, 60, 51, 101, 44, 88, 96, 26, 84, 124, 91, 27, 3, 90, 64, 49, 33, 29, 56, 101, 110, 93, 50, 98, 23, 74, 85, 87, 51, 29, 87, 58, 89, 82, 32, 88, 43, 101, 74, 68, 61, 60, 99, 7, 86, 35, 57, 40, 100, 44, 56, 82, 62, 70, 64, 31, 97, 80, 69, 59, 102, 88, 100, 27, 63, 49, 75, 89, 25, 26, 86, 85, 63, 69, 11, 45, 57, 126, 36, 83, 85, 92, 98, 26, 117, 61, 71, 101, 65, 33, 66, 68, 48, 35, 20, 83, 52, 97, 37, 53, 72
              |50, 46, 34, 37, 31, 42, 28, 49, 78, 22, 46, 43, 21, 66, 49, 19, 60, 8, 30, 59, 59, 36, 54, 71, 45, 39, 18, 33, 50, 68, 26, 60, 31, 38, 36, 36, 29, 55, 47, 38, 28, 31, 24, 50, 31, 11, 47, 42, 56, 67, 62, 45, 28, 53, 32, 54, 58, 4, 14, 58, 31, 23, 46, 16, 42, 32, 81, 12, 28, 31, 53, 33, 31, 54, 37, 51, 10, 39, 65, 70, 52, 43, 28, 17, 22, 18, 37, 84, 40, 55, 44, 55, 22, 74, 52, 18, 35, 62, 19, 48, 46, 42, 44, 42, 59, 17, 57, 39, 45, 73, 61, 76, 34, 39, 35, 58, 70, 61, 23, 34, 14, 30, 37, 64, 67, 62, 11, 29, 65, 35, 41, 45, 14, 63, 30, 39, 32, 40, 46, 46, 28, 78, 84, 21, 51, 38, 40, 35, 36, 48, 67, 18, 65, 42, 48, 18, 1, 15, 51, 35, 31, 29, 59, 27, 46, 13, 48, 62, 63, 38, 13, 29, 10, 68, 35, 39, 48, 60, 46, 64, 65, 19, 60, 40, 37, 9, 33, 55, 68, 48, 49, 41, 44, 66, 67, 53, 74, 65, 53, 22
              |35, 52, 47, 4, 51, 70, 61, 82, 99, 54, 41, 48, 31, 56, 82, 51, 51, 41, 4, 76, 61, 66, 39, 51, 54, 71, 49, 53, 73, 92, 52, 51, 60, 7, 63, 10, 61, 88, 26, 70, 9, 28, 53, 83, 29, 42, 64, 76, 83, 59, 55, 77, 45, 71, 25, 87, 67, 36, 25, 35, 34, 19, 34, 36, 51, 20, 102, 22, 52, 51, 68, 49, 15, 85, 28, 81, 25, 6, 89, 83, 41, 73, 55, 18, 53, 15, 64, 105, 29, 89, 77, 87, 55, 97, 86, 15, 34, 52, 35, 31, 79, 74, 15, 58, 91, 34, 76, 70, 33, 58, 89, 99, 15, 43, 52, 73, 84, 64, 20, 44, 30, 58, 9, 91, 60, 48, 23, 52, 80, 19, 47, 27, 45, 77, 15, 59, 1, 35, 43, 49, 41, 60, 105, 51, 81, 71, 62, 59, 58, 81, 55, 48, 60, 76, 73, 25, 34, 48, 84, 57, 16, 6, 77, 39, 56, 29, 79, 79, 91, 69, 43, 62, 41, 90, 59, 72, 31, 73, 78, 50, 48, 30, 88, 21, 43, 36, 55, 88, 81, 81, 83, 55, 67, 93, 55, 59, 56, 76, 86, 55
              |30, 62, 51, 9, 56, 80, 71, 91, 109, 63, 39, 57, 36, 62, 92, 60, 58, 49, 13, 87, 70, 76, 45, 54, 64, 81, 58, 58, 84, 102, 58, 58, 70, 5, 69, 9, 71, 96, 20, 80, 15, 29, 64, 93, 39, 52, 75, 85, 94, 66, 62, 87, 50, 82, 35, 95, 77, 45, 36, 38, 36, 30, 41, 43, 61, 21, 112, 31, 58, 62, 78, 53, 25, 93, 37, 92, 35, 4, 100, 93, 48, 80, 66, 29, 63, 25, 75, 116, 37, 97, 87, 95, 63, 108, 95, 25, 35, 58, 41, 26, 89, 84, 18, 69, 99, 40, 87, 78, 30, 62, 100, 109, 24, 52, 63, 83, 94, 72, 25, 47, 37, 69, 16, 102, 66, 54, 32, 63, 90, 28, 57, 33, 54, 87, 25, 69, 11, 44, 52, 58, 52, 63, 115, 58, 91, 81, 72, 64, 68, 91, 61, 59, 67, 85, 84, 32, 43, 58, 94, 62, 25, 14, 87, 50, 66, 39, 86, 90, 102, 77, 51, 72, 51, 101, 70, 82, 26, 83, 86, 56, 52, 35, 98, 17, 53, 46, 60, 98, 91, 91, 92, 65, 78, 104, 61, 69, 59, 86, 96, 64
              |99, 28, 82, 72, 77, 18, 39, 58, 28, 55, 96, 31, 71, 56, 46, 56, 51, 52, 69, 10, 35, 26, 57, 73, 24, 34, 56, 79, 7, 22, 69, 51, 26, 78, 75, 79, 35, 70, 93, 36, 71, 81, 30, 47, 44, 41, 8, 48, 21, 54, 49, 38, 77, 6, 49, 72, 23, 53, 48, 70, 82, 52, 53, 65, 25, 80, 31, 59, 72, 21, 12, 81, 58, 76, 49, 30, 51, 77, 19, 23, 52, 74, 23, 54, 34, 60, 19, 34, 51, 62, 41, 74, 54, 27, 59, 60, 86, 55, 69, 95, 48, 36, 71, 13, 76, 68, 7, 65, 94, 68, 28, 28, 59, 34, 18, 13, 23, 35, 71, 83, 64, 24, 68, 27, 52, 59, 57, 22, 18, 57, 29, 60, 56, 18, 57, 12, 70, 44, 40, 33, 30, 76, 34, 61, 26, 40, 10, 77, 14, 46, 58, 35, 48, 50, 11, 68, 51, 43, 50, 79, 57, 70, 9, 32, 21, 45, 73, 12, 29, 67, 58, 42, 41, 20, 16, 41, 95, 17, 67, 60, 66, 70, 25, 87, 31, 42, 77, 56, 23, 54, 57, 18, 8, 27, 59, 27, 73, 22, 45, 49
              |81, 37, 91, 45, 92, 75, 81, 106, 85, 85, 88, 34, 74, 14, 100, 83, 15, 72, 49, 64, 34, 77, 11, 9, 41, 86, 81, 94, 71, 85, 89, 15, 72, 52, 100, 57, 79, 115, 71, 86, 55, 74, 69, 100, 33, 65, 57, 97, 85, 19, 19, 92, 87, 61, 32, 115, 47, 69, 50, 14, 80, 42, 18, 75, 41, 67, 88, 59, 91, 55, 55, 92, 36, 117, 27, 90, 55, 49, 83, 62, 14, 107, 65, 49, 71, 52, 72, 92, 24, 112, 94, 117, 84, 90, 109, 53, 81, 12, 77, 77, 99, 89, 33, 53, 120, 75, 66, 101, 80, 11, 92, 88, 34, 33, 52, 58, 64, 36, 65, 89, 70, 69, 38, 92, 20, 6, 58, 60, 62, 31, 37, 21, 78, 59, 37, 57, 48, 26, 26, 32, 45, 14, 91, 85, 87, 89, 61, 98, 59, 99, 12, 67, 23, 98, 74, 68, 65, 73, 103, 97, 36, 51, 65, 44, 44, 51, 111, 66, 94, 102, 77, 84, 64, 82, 64, 91, 77, 55, 107, 7, 1, 72, 90, 67, 37, 60, 95, 109, 60, 104, 106, 48, 67, 92, 11, 39, 10, 55, 102, 82
              |61, 55, 33, 53, 27, 37, 16, 33, 76, 6, 53, 53, 29, 79, 35, 5, 73, 9, 46, 60, 68, 29, 68, 86, 53, 29, 5, 29, 48, 64, 18, 73, 25, 54, 25, 51, 19, 38, 59, 26, 43, 41, 21, 36, 45, 14, 49, 27, 50, 80, 74, 33, 28, 55, 47, 38, 64, 13, 29, 74, 38, 39, 61, 21, 50, 45, 79, 28, 22, 35, 57, 32, 48, 38, 52, 41, 26, 55, 61, 73, 66, 29, 27, 34, 17, 35, 33, 80, 54, 39, 31, 39, 6, 69, 36, 34, 43, 75, 25, 59, 31, 30, 60, 46, 42, 24, 58, 23, 55, 87, 53, 73, 50, 51, 40, 61, 73, 70, 36, 35, 23, 27, 54, 57, 79, 76, 27, 31, 68, 51, 51, 61, 7, 66, 46, 42, 49, 54, 58, 57, 37, 93, 81, 10, 43, 25, 42, 26, 38, 34, 80, 17, 76, 27, 45, 29, 16, 8, 36, 28, 47, 45, 60, 37, 53, 28, 32, 63, 55, 23, 10, 16, 15, 65, 35, 26, 59, 64, 29, 77, 80, 28, 52, 53, 48, 19, 26, 39, 71, 32, 33, 47, 43, 59, 80, 61, 89, 69, 40, 6
              |93, 30, 98, 56, 98, 70, 80, 105, 74, 86, 98, 30, 81, 2, 97, 85, 8, 75, 59, 54, 22, 74, 18, 20, 34, 82, 84, 100, 64, 76, 93, 8, 69, 63, 104, 68, 77, 115, 83, 84, 64, 83, 67, 97, 37, 66, 50, 95, 77, 4, 8, 88, 94, 52, 38, 115, 36, 72, 55, 29, 88, 48, 24, 81, 35, 77, 76, 65, 96, 52, 46, 98, 44, 118, 32, 84, 59, 61, 74, 50, 17, 109, 62, 55, 70, 59, 67, 81, 30, 110, 91, 117, 86, 80, 107, 60, 90, 6, 83, 88, 96, 86, 45, 47, 120, 81, 57, 103, 91, 11, 85, 77, 43, 31, 48, 48, 52, 24, 73, 96, 76, 67, 49, 84, 6, 10, 64, 57, 51, 39, 33, 31, 81, 48, 45, 51, 58, 28, 23, 26, 44, 19, 79, 88, 81, 87, 55, 103, 54, 96, 3, 66, 10, 96, 67, 75, 69, 74, 100, 102, 44, 61, 55, 44, 37, 55, 112, 56, 86, 103, 81, 83, 66, 72, 59, 88, 88, 44, 108, 9, 15, 79, 82, 78, 34, 62, 100, 106, 48, 102, 104, 42, 60, 84, 4, 30, 17, 43, 98, 83
              |17, 71, 42, 20, 48, 84, 71, 89, 116, 60, 27, 67, 31, 74, 92, 57, 70, 48, 19, 94, 80, 79, 57, 67, 72, 83, 55, 50, 89, 108, 53, 70, 73, 13, 63, 9, 72, 92, 7, 81, 17, 20, 66, 93, 48, 54, 82, 84, 98, 78, 74, 88, 43, 89, 44, 90, 86, 45, 40, 51, 27, 37, 53, 38, 70, 13, 119, 32, 52, 67, 86, 45, 34, 88, 47, 94, 38, 15, 105, 101, 60, 74, 69, 34, 65, 28, 79, 122, 48, 95, 87, 90, 61, 114, 93, 28, 25, 70, 36, 13, 88, 85, 31, 76, 94, 35, 94, 74, 17, 75, 103, 115, 34, 62, 70, 91, 103, 83, 21, 38, 34, 72, 27, 106, 78, 66, 33, 68, 98, 38, 66, 45, 51, 96, 34, 76, 19, 55, 63, 68, 59, 76, 122, 54, 94, 81, 78, 57, 74, 91, 74, 61, 79, 84, 89, 28, 43, 58, 93, 55, 35, 18, 94, 57, 74, 44, 81, 97, 106, 72, 48, 72, 53, 107, 74, 82, 13, 91, 82, 68, 65, 30, 102, 5, 62, 49, 53, 96, 99, 89, 90, 73, 83, 108, 73, 78, 72, 94, 96, 63
              |63, 37, 74, 27, 76, 70, 71, 95, 88, 71, 70, 33, 57, 28, 91, 69, 25, 57, 31, 65, 40, 70, 12, 23, 40, 77, 67, 78, 68, 85, 74, 25, 64, 34, 85, 39, 69, 103, 54, 77, 37, 56, 59, 92, 22, 53, 55, 86, 81, 32, 29, 83, 71, 61, 19, 103, 51, 54, 36, 9, 62, 26, 11, 59, 39, 49, 90, 43, 75, 49, 56, 75, 19, 103, 16, 84, 40, 31, 83, 67, 16, 93, 57, 33, 61, 35, 65, 95, 13, 101, 85, 104, 71, 90, 98, 36, 63, 24, 60, 59, 89, 81, 16, 50, 108, 58, 66, 88, 62, 29, 88, 89, 17, 29, 47, 60, 69, 43, 47, 72, 53, 61, 20, 89, 33, 20, 42, 52, 66, 14, 35, 4, 64, 63, 20, 53, 30, 19, 25, 32, 38, 31, 94, 70, 82, 80, 57, 82, 54, 90, 27, 56, 34, 87, 70, 51, 50, 60, 94, 81, 19, 34, 66, 36, 43, 38, 97, 68, 90, 88, 62, 73, 52, 82, 58, 81, 59, 58, 95, 22, 19, 55, 86, 49, 32, 47, 79, 99, 65, 93, 95, 45, 63, 90, 27, 42, 27, 59, 93, 69
              |53, 34, 58, 18, 59, 58, 55, 79, 83, 54, 57, 30, 41, 39, 76, 52, 34, 40, 19, 60, 43, 56, 24, 39, 36, 63, 50, 61, 59, 77, 57, 34, 50, 25, 68, 29, 54, 87, 44, 63, 23, 42, 45, 77, 12, 37, 48, 71, 71, 42, 37, 69, 54, 55, 7, 86, 49, 37, 19, 25, 47, 9, 17, 42, 34, 36, 85, 26, 58, 37, 51, 59, 3, 87, 10, 71, 23, 23, 75, 65, 24, 76, 44, 16, 46, 19, 53, 89, 11, 85, 70, 87, 54, 83, 82, 20, 49, 35, 43, 49, 74, 66, 15, 43, 91, 42, 60, 71, 50, 44, 77, 83, 4, 25, 38, 56, 67, 45, 32, 56, 37, 48, 12, 79, 42, 33, 25, 40, 63, 3, 30, 13, 47, 60, 4, 44, 19, 17, 25, 31, 27, 47, 89, 53, 70, 65, 48, 65, 44, 75, 39, 41, 42, 72, 60, 34, 33, 44, 79, 64, 3, 21, 60, 25, 39, 21, 80, 63, 80, 71, 45, 57, 36, 75, 46, 66, 49, 55, 78, 35, 35, 39, 76, 39, 26, 30, 62, 84, 63, 77, 79, 38, 53, 80, 39, 41, 43, 58, 79, 53
              |53, 74, 18, 59, 10, 57, 34, 39, 96, 17, 42, 71, 25, 95, 47, 16, 89, 23, 51, 81, 87, 48, 82, 100, 72, 46, 15, 10, 68, 83, 4, 89, 46, 56, 8, 52, 38, 38, 55, 43, 47, 36, 41, 48, 60, 33, 70, 39, 69, 96, 91, 48, 14, 75, 60, 36, 84, 25, 42, 85, 30, 51, 75, 19, 69, 42, 98, 35, 4, 55, 77, 15, 58, 33, 66, 58, 38, 59, 80, 93, 81, 19, 48, 44, 37, 42, 53, 100, 68, 44, 45, 35, 18, 88, 43, 42, 34, 91, 20, 52, 43, 46, 69, 66, 39, 21, 78, 20, 47, 102, 71, 93, 60, 68, 60, 82, 93, 89, 36, 22, 25, 47, 62, 75, 96, 91, 36, 51, 88, 63, 69, 73, 16, 87, 57, 62, 54, 69, 75, 75, 56, 107, 101, 10, 61, 40, 62, 6, 59, 46, 96, 37, 94, 37, 65, 30, 28, 28, 47, 8, 58, 49, 80, 55, 72, 42, 26, 83, 73, 18, 16, 32, 33, 85, 55, 40, 52, 84, 28, 93, 94, 26, 70, 51, 66, 36, 6, 47, 92, 40, 40, 67, 63, 78, 96, 80, 103, 89, 52, 23
              |37, 68, 11, 43, 11, 61, 41, 53, 99, 25, 28, 65, 9, 85, 59, 22, 80, 20, 36, 81, 81, 53, 71, 87, 68, 54, 21, 14, 70, 88, 14, 80, 49, 40, 24, 36, 44, 54, 38, 51, 31, 19, 43, 60, 51, 31, 69, 50, 74, 87, 82, 57, 6, 75, 50, 52, 81, 19, 33, 72, 14, 40, 64, 7, 64, 25, 102, 22, 13, 53, 76, 11, 46, 49, 55, 66, 28, 43, 85, 92, 71, 35, 49, 33, 40, 29, 56, 104, 58, 58, 55, 52, 26, 93, 57, 28, 19, 81, 4, 36, 55, 55, 54, 64, 56, 6, 79, 36, 31, 91, 78, 97, 47, 61, 58, 81, 93, 83, 20, 11, 11, 49, 47, 81, 87, 80, 24, 51, 88, 51, 63, 61, 18, 86, 44, 61, 38, 60, 66, 68, 50, 95, 104, 18, 68, 50, 62, 19, 58, 58, 86, 38, 86, 50, 68, 14, 22, 30, 59, 18, 45, 34, 81, 49, 68, 34, 43, 84, 80, 34, 15, 40, 31, 88, 56, 50, 36, 83, 44, 82, 82, 10, 77, 34, 59, 31, 16, 61, 90, 54, 54, 64, 65, 84, 86, 75, 91, 87, 64, 31
              |85, 66, 53, 77, 45, 33, 16, 9, 69, 23, 75, 66, 53, 94, 12, 25, 88, 34, 71, 60, 79, 24, 86, 105, 63, 17, 27, 45, 45, 55, 35, 88, 27, 78, 34, 76, 18, 20, 84, 14, 68, 65, 28, 13, 64, 34, 53, 4, 39, 94, 88, 16, 48, 56, 67, 21, 70, 38, 51, 95, 62, 61, 80, 45, 61, 69, 71, 52, 39, 44, 61, 50, 70, 26, 71, 27, 50, 80, 52, 74, 83, 27, 34, 57, 26, 59, 32, 71, 74, 15, 12, 24, 21, 59, 12, 59, 66, 91, 48, 83, 8, 15, 83, 52, 26, 48, 57, 18, 79, 104, 39, 64, 72, 65, 49, 64, 73, 79, 61, 56, 48, 30, 77, 43, 92, 93, 52, 39, 68, 73, 63, 81, 31, 68, 69, 47, 73, 71, 73, 70, 52, 111, 72, 30, 31, 10, 45, 39, 43, 11, 95, 30, 89, 2, 40, 54, 40, 26, 12, 42, 69, 70, 59, 52, 62, 49, 23, 62, 41, 21, 34, 13, 35, 57, 38, 9, 83, 67, 17, 94, 98, 53, 40, 78, 62, 40, 41, 14, 73, 7, 9, 56, 43, 46, 96, 70, 107, 72, 17, 19
              |68, 20, 69, 33, 69, 52, 55, 80, 71, 59, 71, 16, 52, 27, 74, 57, 21, 46, 34, 48, 28, 53, 16, 34, 23, 60, 56, 71, 50, 67, 64, 21, 47, 40, 75, 43, 53, 89, 59, 61, 38, 55, 43, 75, 8, 39, 38, 71, 63, 29, 24, 67, 65, 44, 9, 89, 36, 43, 26, 25, 60, 19, 9, 52, 21, 50, 74, 36, 66, 31, 39, 69, 18, 91, 5, 66, 30, 38, 65, 52, 13, 81, 40, 26, 45, 31, 48, 78, 5, 86, 68, 91, 58, 73, 83, 32, 62, 23, 54, 64, 73, 64, 27, 32, 94, 52, 49, 75, 65, 35, 70, 72, 18, 12, 29, 43, 53, 31, 45, 67, 47, 44, 26, 71, 29, 23, 35, 35, 50, 14, 17, 14, 53, 47, 18, 35, 34, 2, 10, 16, 20, 40, 77, 60, 64, 64, 39, 74, 36, 73, 28, 41, 28, 72, 52, 46, 40, 47, 77, 73, 17, 35, 49, 19, 26, 26, 85, 51, 72, 76, 52, 58, 38, 65, 40, 65, 64, 42, 81, 25, 28, 50, 68, 53, 14, 34, 71, 83, 49, 78, 80, 27, 45, 72, 28, 27, 36, 44, 77, 56
              |101, 16, 92, 69, 89, 39, 56, 78, 37, 69, 101, 21, 78, 37, 67, 69, 33, 62, 68, 17, 15, 46, 43, 56, 14, 54, 69, 90, 29, 38, 81, 33, 43, 75, 89, 78, 52, 90, 93, 56, 70, 85, 45, 68, 39, 51, 17, 68, 42, 34, 30, 59, 86, 16, 43, 91, 1, 62, 50, 57, 88, 50, 41, 74, 17, 82, 39, 63, 84, 29, 10, 91, 53, 95, 41, 52, 55, 74, 37, 15, 38, 91, 38, 55, 49, 61, 38, 44, 42, 83, 62, 93, 68, 43, 79, 62, 91, 37, 77, 97, 68, 57, 63, 18, 96, 75, 20, 82, 97, 49, 49, 40, 54, 25, 24, 10, 17, 14, 75, 92, 71, 41, 62, 48, 32, 42, 61, 33, 14, 50, 21, 49, 68, 11, 53, 23, 68, 34, 27, 20, 31, 57, 43, 74, 48, 60, 25, 90, 27, 67, 39, 47, 28, 70, 33, 73, 59, 56, 71, 91, 52, 69, 18, 32, 13, 48, 91, 18, 50, 84, 69, 59, 51, 35, 32, 61, 97, 7, 85, 42, 49, 76, 47, 87, 25, 50, 89, 77, 13, 75, 77, 17, 28, 47, 40, 10, 54, 8, 67, 64
              |94, 57, 66, 80, 59, 18, 17, 23, 51, 34, 87, 57, 62, 86, 10, 36, 80, 41, 74, 45, 68, 13, 81, 99, 53, 6, 38, 59, 29, 37, 49, 80, 19, 82, 50, 81, 16, 35, 91, 8, 73, 74, 24, 11, 61, 35, 40, 14, 22, 85, 79, 2, 60, 42, 64, 37, 57, 44, 52, 91, 72, 61, 75, 54, 52, 77, 53, 57, 52, 36, 47, 64, 70, 43, 67, 9, 52, 83, 35, 58, 77, 45, 26, 59, 24, 62, 20, 53, 70, 27, 6, 40, 33, 41, 23, 62, 77, 83, 58, 92, 12, 4, 84, 41, 41, 57, 41, 35, 88, 97, 22, 47, 72, 58, 39, 49, 58, 68, 68, 68, 56, 22, 78, 26, 83, 86, 56, 31, 53, 71, 55, 78, 41, 53, 68, 36, 76, 66, 66, 61, 46, 104, 55, 42, 13, 9, 33, 54, 33, 10, 87, 29, 79, 16, 25, 62, 45, 30, 14, 57, 69, 73, 44, 47, 51, 49, 41, 46, 24, 38, 44, 18, 36, 40, 28, 9, 92, 53, 34, 87, 92, 61, 22, 85, 54, 41, 56, 21, 58, 19, 21, 45, 29, 29, 88, 59, 100, 58, 11, 28
              |46, 52, 64, 13, 67, 78, 74, 96, 102, 69, 55, 48, 47, 47, 95, 66, 44, 55, 20, 80, 58, 76, 31, 38, 55, 82, 64, 69, 79, 97, 68, 44, 70, 18, 79, 23, 73, 102, 36, 82, 25, 43, 64, 96, 32, 54, 68, 89, 91, 51, 49, 89, 62, 75, 27, 102, 67, 51, 37, 22, 50, 27, 28, 52, 53, 35, 105, 37, 68, 58, 71, 65, 19, 101, 27, 91, 38, 15, 95, 83, 34, 88, 64, 30, 65, 30, 73, 109, 27, 102, 89, 102, 69, 103, 100, 30, 50, 43, 52, 42, 92, 86, 5, 63, 106, 50, 80, 85, 46, 47, 98, 103, 17, 43, 58, 75, 85, 61, 36, 60, 46, 68, 10, 99, 52, 39, 37, 60, 82, 19, 49, 20, 60, 79, 20, 64, 18, 34, 41, 48, 47, 47, 108, 66, 90, 83, 68, 75, 64, 94, 46, 60, 54, 89, 80, 42, 48, 61, 97, 74, 20, 22, 80, 45, 58, 39, 94, 82, 100, 85, 58, 75, 53, 96, 67, 85, 42, 74, 93, 40, 37, 46, 96, 33, 45, 48, 71, 101, 81, 95, 96, 58, 74, 101, 46, 59, 43, 76, 98, 69
              |56, 49, 34, 45, 30, 37, 21, 41, 75, 14, 50, 46, 25, 71, 41, 12, 65, 4, 38, 58, 62, 30, 60, 78, 47, 32, 11, 31, 46, 64, 22, 65, 25, 46, 31, 44, 22, 47, 53, 30, 36, 37, 19, 42, 37, 8, 46, 34, 51, 72, 66, 37, 28, 52, 38, 46, 59, 6, 21, 65, 35, 31, 53, 18, 44, 39, 78, 20, 25, 30, 53, 33, 39, 47, 43, 44, 18, 47, 61, 69, 58, 37, 25, 25, 16, 27, 33, 80, 46, 47, 36, 47, 14, 69, 44, 26, 40, 68, 22, 54, 38, 34, 52, 42, 51, 21, 56, 31, 51, 79, 55, 73, 41, 43, 35, 58, 70, 64, 30, 35, 18, 26, 45, 58, 71, 68, 19, 27, 65, 43, 44, 52, 9, 63, 38, 38, 41, 46, 50, 50, 31, 85, 80, 16, 45, 30, 39, 31, 35, 40, 72, 14, 69, 34, 44, 24, 8, 8, 43, 32, 38, 37, 57, 30, 47, 19, 40, 60, 57, 31, 10, 21, 8, 64, 32, 31, 54, 60, 38, 69, 72, 24, 54, 48, 41, 11, 30, 46, 68, 40, 41, 42, 41, 61, 73, 55, 80, 65, 45, 14
              |61, 66, 28, 60, 21, 46, 23, 29, 85, 6, 51, 65, 30, 90, 36, 7, 84, 18, 53, 71, 80, 37, 79, 97, 65, 34, 8, 21, 57, 72, 11, 84, 35, 59, 14, 56, 27, 32, 61, 31, 49, 42, 31, 37, 56, 26, 60, 28, 57, 91, 85, 37, 23, 65, 57, 30, 75, 21, 39, 83, 38, 49, 71, 22, 62, 47, 87, 34, 14, 46, 68, 26, 57, 29, 62, 47, 35, 61, 69, 83, 77, 18, 38, 43, 27, 42, 42, 89, 65, 35, 34, 30, 7, 77, 34, 42, 42, 86, 25, 59, 32, 35, 69, 57, 35, 25, 68, 14, 55, 98, 59, 81, 59, 62, 51, 72, 83, 81, 40, 31, 27, 36, 62, 63, 90, 87, 35, 42, 78, 61, 62, 71, 11, 77, 55, 53, 55, 65, 69, 68, 49, 104, 90, 6, 50, 29, 52, 17, 49, 36, 91, 28, 87, 27, 54, 33, 25, 19, 37, 19, 56, 51, 70, 48, 64, 38, 22, 73, 61, 13, 13, 21, 26, 74, 45, 29, 59, 75, 22, 88, 91, 30, 59, 56, 59, 30, 18, 37, 82, 30, 31, 59, 53, 66, 91, 73, 99, 80, 41, 12
              |96, 72, 64, 88, 55, 34, 24, 9, 66, 34, 86, 72, 64, 101, 6, 37, 94, 45, 81, 61, 84, 28, 94, 113, 69, 20, 39, 56, 46, 52, 46, 94, 33, 89, 43, 87, 26, 20, 95, 18, 79, 76, 36, 6, 73, 43, 56, 9, 37, 100, 94, 15, 59, 58, 76, 22, 74, 49, 61, 103, 73, 71, 88, 56, 67, 81, 68, 63, 49, 50, 64, 61, 80, 29, 80, 24, 60, 90, 50, 75, 91, 35, 40, 67, 34, 70, 36, 67, 82, 10, 11, 25, 33, 55, 7, 69, 77, 98, 59, 94, 6, 16, 93, 57, 26, 59, 58, 27, 90, 111, 35, 61, 82, 72, 54, 66, 74, 84, 72, 67, 59, 35, 87, 39, 98, 100, 62, 45, 70, 82, 69, 90, 42, 70, 78, 52, 84, 79, 80, 76, 59, 118, 69, 41, 28, 15, 49, 49, 48, 7, 102, 39, 95, 9, 41, 65, 51, 36, 3, 52, 79, 80, 60, 60, 67, 59, 29, 63, 36, 30, 46, 23, 44, 55, 43, 14, 94, 70, 22, 101, 106, 64, 36, 89, 68, 50, 52, 4, 74, 6, 7, 61, 45, 42, 103, 75, 114, 75, 9, 30
              |28, 58, 33, 18, 37, 67, 54, 72, 100, 43, 29, 54, 17, 67, 74, 40, 62, 31, 11, 79, 69, 61, 51, 65, 59, 65, 38, 39, 72, 91, 38, 62, 56, 15, 49, 11, 55, 76, 22, 63, 6, 14, 49, 75, 36, 36, 66, 67, 81, 70, 65, 70, 31, 73, 33, 75, 73, 27, 24, 49, 20, 23, 45, 23, 56, 9, 103, 14, 38, 51, 71, 35, 25, 73, 37, 76, 21, 17, 88, 87, 52, 60, 52, 18, 47, 12, 61, 106, 39, 79, 70, 75, 44, 97, 76, 11, 21, 63, 22, 24, 71, 67, 30, 60, 79, 21, 78, 59, 24, 71, 86, 99, 26, 49, 54, 76, 88, 71, 6, 30, 18, 55, 23, 89, 70, 60, 16, 51, 83, 30, 53, 39, 34, 81, 24, 59, 13, 44, 52, 56, 43, 73, 106, 39, 77, 64, 62, 45, 57, 73, 67, 43, 70, 67, 72, 12, 25, 41, 76, 43, 25, 9, 79, 41, 60, 27, 66, 81, 88, 57, 32, 54, 35, 90, 57, 64, 24, 77, 66, 62, 61, 16, 85, 15, 48, 31, 41, 79, 85, 72, 73, 58, 66, 91, 67, 65, 69, 80, 79, 46
              |13, 75, 27, 30, 34, 80, 64, 79, 115, 50, 13, 71, 20, 83, 83, 47, 79, 41, 26, 95, 86, 74, 67, 79, 76, 76, 45, 36, 87, 106, 40, 79, 69, 24, 49, 19, 66, 80, 13, 74, 21, 7, 62, 84, 53, 49, 82, 75, 94, 87, 82, 81, 29, 89, 50, 78, 89, 38, 40, 63, 12, 40, 61, 28, 72, 8, 118, 28, 38, 67, 88, 30, 41, 75, 54, 88, 36, 27, 103, 103, 68, 61, 66, 35, 60, 29, 75, 121, 56, 84, 79, 77, 51, 111, 83, 28, 9, 79, 24, 10, 80, 78, 43, 76, 81, 25, 94, 62, 7, 86, 99, 114, 42, 66, 70, 93, 105, 88, 16, 23, 25, 68, 37, 102, 87, 76, 30, 66, 100, 46, 70, 55, 41, 97, 41, 75, 27, 61, 69, 73, 60, 88, 121, 43, 89, 73, 77, 43, 73, 82, 83, 56, 86, 75, 86, 20, 37, 51, 84, 41, 42, 24, 94, 58, 77, 43, 68, 97, 101, 60, 38, 64, 48, 105, 72, 74, 10, 93, 70, 78, 76, 20, 98, 11, 65, 45, 39, 86, 102, 79, 80, 74, 81, 104, 83, 82, 84, 97, 88, 54
              |89, 26, 94, 53, 93, 66, 76, 100, 72, 82, 94, 26, 77, 3, 92, 81, 4, 70, 55, 51, 20, 70, 15, 21, 30, 78, 80, 96, 60, 73, 89, 4, 65, 60, 99, 64, 73, 111, 80, 79, 60, 79, 63, 93, 32, 62, 46, 91, 74, 5, 5, 84, 89, 49, 33, 111, 34, 68, 50, 27, 84, 43, 20, 76, 31, 73, 74, 61, 91, 48, 43, 94, 40, 113, 28, 81, 55, 57, 71, 48, 13, 105, 58, 51, 66, 55, 63, 79, 26, 106, 87, 113, 82, 78, 103, 56, 86, 3, 79, 85, 92, 82, 42, 43, 116, 77, 54, 98, 87, 14, 81, 75, 39, 26, 44, 45, 50, 22, 69, 92, 72, 62, 45, 81, 6, 9, 59, 52, 49, 35, 28, 27, 77, 46, 41, 48, 55, 23, 19, 22, 40, 22, 77, 84, 78, 83, 51, 98, 50, 92, 4, 62, 9, 92, 64, 71, 64, 69, 96, 98, 40, 57, 53, 39, 33, 50, 107, 53, 83, 99, 77, 79, 61, 70, 55, 84, 85, 42, 104, 8, 15, 75, 79, 75, 30, 57, 96, 102, 46, 98, 100, 38, 57, 81, 5, 27, 19, 41, 94, 78
              |78, 8, 72, 45, 70, 40, 48, 72, 56, 55, 79, 4, 57, 31, 64, 54, 25, 45, 44, 34, 20, 42, 27, 44, 9, 50, 53, 72, 36, 53, 64, 25, 37, 52, 74, 54, 45, 82, 70, 51, 47, 63, 35, 65, 16, 35, 23, 62, 49, 31, 25, 56, 67, 29, 20, 83, 23, 43, 28, 39, 66, 27, 22, 54, 7, 59, 59, 41, 67, 19, 25, 72, 30, 85, 19, 54, 33, 50, 50, 38, 22, 78, 30, 32, 38, 38, 36, 63, 20, 78, 59, 85, 55, 58, 74, 39, 69, 28, 57, 74, 64, 54, 41, 18, 88, 55, 34, 71, 74, 41, 57, 58, 31, 3, 16, 29, 40, 22, 52, 71, 50, 34, 39, 57, 30, 31, 39, 24, 36, 27, 3, 29, 51, 33, 30, 21, 45, 13, 10, 7, 12, 49, 62, 58, 52, 55, 25, 73, 23, 64, 33, 34, 27, 64, 38, 51, 40, 42, 68, 74, 29, 45, 34, 12, 12, 27, 80, 36, 59, 72, 52, 50, 35, 50, 28, 56, 74, 28, 76, 32, 37, 55, 55, 64, 2, 32, 72, 74, 36, 69, 71, 13, 31, 58, 33, 15, 45, 31, 66, 51
              |42, 46, 34, 26, 35, 51, 39, 60, 85, 32, 41, 43, 18, 62, 60, 29, 56, 18, 19, 64, 59, 46, 48, 64, 46, 50, 27, 37, 57, 76, 32, 56, 40, 27, 43, 25, 39, 65, 37, 48, 17, 25, 33, 61, 27, 21, 51, 53, 65, 64, 58, 55, 30, 58, 26, 64, 60, 14, 10, 50, 27, 16, 40, 17, 43, 23, 88, 2, 33, 36, 57, 35, 23, 64, 31, 61, 6, 28, 73, 73, 47, 52, 36, 9, 32, 8, 46, 91, 34, 66, 55, 65, 32, 81, 63, 7, 30, 58, 19, 39, 57, 52, 34, 46, 69, 17, 63, 48, 38, 68, 70, 84, 25, 38, 39, 62, 74, 61, 15, 33, 12, 39, 27, 73, 64, 56, 0, 35, 70, 27, 41, 38, 23, 67, 21, 45, 21, 36, 43, 45, 30, 72, 91, 29, 61, 49, 47, 40, 42, 59, 62, 28, 62, 53, 56, 12, 11, 26, 62, 40, 22, 18, 64, 28, 48, 13, 57, 67, 72, 48, 21, 40, 20, 75, 42, 50, 39, 64, 56, 58, 59, 16, 69, 31, 37, 16, 38, 66, 72, 59, 60, 44, 51, 75, 62, 54, 68, 68, 64, 33
              |53, 36, 43, 31, 42, 42, 34, 57, 74, 32, 51, 33, 28, 55, 55, 30, 49, 19, 26, 53, 49, 37, 42, 60, 36, 43, 28, 44, 47, 65, 37, 49, 32, 34, 47, 34, 33, 64, 47, 42, 25, 36, 25, 56, 20, 15, 41, 49, 56, 56, 51, 49, 38, 48, 21, 64, 50, 16, 3, 48, 38, 13, 35, 25, 33, 34, 77, 13, 39, 25, 47, 43, 22, 64, 26, 53, 5, 35, 63, 63, 41, 54, 27, 10, 25, 14, 36, 80, 29, 63, 49, 65, 32, 71, 60, 15, 41, 51, 28, 50, 52, 46, 35, 35, 69, 26, 52, 49, 48, 62, 61, 73, 24, 29, 29, 52, 64, 51, 26, 42, 21, 30, 29, 64, 56, 51, 11, 25, 59, 25, 31, 35, 25, 56, 21, 34, 27, 29, 35, 36, 19, 67, 80, 32, 53, 44, 36, 46, 32, 54, 56, 20, 54, 50, 46, 23, 12, 22, 57, 46, 21, 25, 53, 18, 37, 2, 58, 56, 64, 49, 25, 35, 14, 65, 32, 45, 50, 53, 56, 52, 54, 26, 60, 41, 27, 8, 44, 62, 61, 55, 57, 34, 41, 66, 56, 44, 63, 57, 58, 31
              |86, 9, 76, 56, 73, 31, 44, 67, 45, 55, 86, 11, 62, 38, 58, 54, 32, 47, 54, 22, 20, 35, 37, 54, 5, 44, 54, 75, 25, 41, 66, 32, 32, 62, 75, 64, 40, 79, 79, 45, 56, 70, 31, 59, 26, 36, 12, 57, 39, 36, 31, 50, 71, 18, 31, 79, 15, 46, 35, 50, 72, 36, 33, 58, 5, 67, 48, 47, 69, 15, 14, 76, 40, 83, 30, 45, 39, 60, 39, 29, 32, 77, 25, 40, 35, 46, 28, 52, 31, 73, 52, 81, 54, 47, 69, 47, 76, 36, 62, 82, 58, 47, 52, 8, 84, 60, 23, 69, 82, 49, 47, 46, 41, 14, 10, 18, 30, 21, 60, 76, 55, 29, 50, 47, 35, 40, 45, 20, 25, 38, 9, 40, 53, 23, 40, 12, 54, 25, 20, 14, 15, 57, 51, 59, 42, 49, 16, 75, 16, 57, 40, 33, 31, 59, 28, 57, 44, 42, 62, 76, 39, 54, 23, 17, 3, 33, 78, 25, 48, 70, 54, 47, 36, 39, 21, 51, 82, 19, 73, 40, 47, 60, 44, 72, 12, 34, 74, 68, 27, 64, 66, 3, 22, 47, 41, 12, 53, 22, 59, 50
              |130, 55, 111, 104, 105, 41, 63, 74, 4, 81, 127, 59, 102, 78, 60, 82, 74, 81, 101, 27, 56, 50, 84, 97, 52, 53, 83, 106, 31, 15, 96, 74, 52, 109, 100, 110, 60, 86, 124, 56, 102, 112, 58, 60, 75, 70, 38, 66, 30, 74, 71, 54, 105, 31, 79, 88, 42, 83, 79, 97, 112, 83, 81, 95, 53, 111, 3, 90, 99, 52, 36, 109, 89, 95, 79, 42, 82, 108, 17, 28, 78, 96, 53, 86, 62, 91, 45, 3, 80, 76, 58, 91, 80, 11, 73, 92, 116, 78, 99, 127, 63, 54, 101, 44, 92, 98, 26, 87, 125, 89, 31, 5, 90, 63, 50, 32, 26, 54, 103, 112, 94, 52, 98, 27, 72, 83, 88, 52, 27, 87, 58, 89, 84, 30, 88, 44, 102, 73, 67, 60, 61, 97, 3, 88, 39, 60, 41, 103, 45, 60, 80, 64, 68, 68, 33, 98, 82, 71, 63, 105, 88, 101, 26, 63, 49, 76, 92, 24, 30, 89, 87, 66, 71, 13, 46, 61, 127, 34, 86, 83, 90, 100, 30, 118, 61, 73, 104, 69, 30, 70, 72, 48, 37, 24, 81, 51, 95, 35, 57, 74
              |55, 72, 21, 59, 13, 54, 32, 36, 93, 14, 44, 70, 26, 94, 44, 13, 88, 21, 52, 78, 86, 45, 82, 99, 71, 43, 13, 13, 65, 80, 4, 88, 43, 57, 8, 53, 35, 36, 56, 40, 48, 37, 39, 45, 59, 31, 67, 36, 66, 95, 90, 45, 16, 73, 60, 34, 82, 24, 42, 85, 32, 51, 74, 20, 68, 43, 96, 35, 6, 53, 75, 18, 58, 31, 65, 56, 37, 60, 78, 91, 80, 17, 46, 44, 35, 42, 51, 97, 68, 41, 42, 33, 15, 85, 40, 42, 36, 90, 21, 54, 40, 43, 69, 64, 37, 22, 76, 18, 49, 102, 68, 90, 60, 67, 58, 80, 91, 87, 37, 24, 25, 44, 62, 72, 95, 90, 35, 49, 86, 63, 67, 73, 15, 85, 57, 60, 54, 68, 73, 73, 54, 107, 98, 8, 58, 38, 60, 8, 56, 44, 95, 35, 92, 35, 62, 30, 27, 26, 44, 10, 57, 50, 78, 54, 70, 41, 25, 81, 70, 16, 15, 30, 31, 82, 53, 37, 54, 82, 26, 92, 93, 27, 68, 52, 64, 34, 9, 44, 90, 38, 38, 65, 61, 75, 95, 79, 102, 87, 49, 21
              |110, 27, 98, 79, 94, 38, 58, 78, 27, 73, 109, 31, 85, 47, 66, 73, 43, 68, 77, 11, 25, 46, 53, 66, 24, 53, 74, 96, 26, 30, 86, 43, 45, 85, 93, 87, 54, 90, 102, 56, 80, 93, 48, 66, 49, 57, 19, 68, 38, 43, 40, 57, 92, 14, 53, 91, 12, 68, 58, 67, 95, 60, 52, 80, 27, 91, 29, 71, 89, 34, 11, 97, 63, 96, 52, 49, 63, 83, 30, 5, 48, 93, 41, 64, 52, 70, 39, 34, 52, 82, 61, 94, 72, 34, 79, 70, 99, 47, 84, 106, 67, 56, 73, 23, 96, 82, 14, 84, 105, 58, 44, 30, 64, 36, 30, 7, 6, 23, 83, 98, 78, 43, 72, 42, 41, 52, 68, 37, 4, 61, 30, 60, 73, 2, 63, 26, 78, 45, 38, 31, 39, 66, 32, 79, 45, 60, 27, 95, 30, 65, 49, 51, 37, 70, 31, 80, 66, 60, 69, 96, 62, 78, 12, 40, 22, 56, 92, 11, 45, 86, 75, 61, 57, 26, 34, 61, 106, 5, 87, 52, 59, 83, 42, 96, 35, 56, 94, 76, 3, 74, 77, 24, 28, 41, 50, 21, 64, 4, 65, 67
              |60, 26, 54, 32, 53, 41, 39, 64, 69, 41, 61, 22, 38, 44, 59, 40, 38, 29, 29, 47, 38, 39, 33, 51, 26, 46, 39, 55, 43, 62, 48, 38, 33, 37, 58, 38, 38, 72, 53, 46, 30, 44, 28, 60, 10, 22, 34, 55, 54, 45, 40, 53, 49, 41, 12, 72, 40, 27, 10, 40, 48, 11, 25, 36, 23, 41, 72, 23, 50, 21, 39, 54, 18, 74, 16, 54, 15, 36, 59, 54, 30, 64, 27, 14, 30, 20, 36, 75, 19, 70, 54, 74, 41, 68, 67, 21, 51, 40, 39, 56, 58, 50, 32, 28, 77, 37, 46, 58, 56, 52, 61, 69, 20, 18, 22, 44, 56, 40, 34, 53, 32, 31, 28, 62, 45, 40, 20, 23, 51, 19, 21, 27, 36, 48, 17, 29, 30, 18, 24, 25, 11, 57, 75, 42, 53, 48, 32, 57, 28, 59, 45, 25, 43, 56, 44, 33, 23, 30, 62, 57, 17, 29, 47, 9, 28, 9, 67, 50, 63, 58, 35, 42, 21, 60, 30, 50, 56, 44, 64, 42, 45, 36, 59, 47, 16, 16, 55, 68, 52, 62, 64, 25, 37, 64, 45, 34, 53, 48, 62, 39
              |59, 27, 53, 31, 52, 41, 39, 63, 69, 41, 60, 23, 37, 45, 59, 39, 39, 28, 28, 47, 39, 39, 33, 52, 27, 46, 38, 54, 43, 62, 47, 39, 33, 36, 57, 38, 37, 72, 52, 46, 30, 43, 28, 60, 11, 21, 35, 55, 54, 46, 41, 52, 48, 42, 13, 72, 41, 26, 9, 40, 47, 11, 26, 35, 24, 40, 72, 22, 49, 22, 40, 53, 18, 73, 17, 54, 14, 36, 60, 55, 31, 63, 27, 14, 29, 19, 36, 76, 20, 69, 53, 73, 40, 68, 66, 20, 50, 41, 38, 56, 57, 49, 32, 29, 76, 36, 47, 57, 55, 53, 61, 69, 20, 19, 23, 45, 56, 41, 33, 52, 31, 31, 27, 63, 46, 41, 19, 23, 52, 19, 22, 27, 35, 49, 17, 29, 29, 19, 25, 26, 12, 58, 75, 42, 53, 48, 32, 56, 28, 58, 46, 24, 44, 55, 44, 32, 22, 29, 62, 56, 17, 28, 48, 10, 29, 8, 67, 50, 63, 58, 35, 41, 21, 61, 30, 49, 56, 45, 64, 43, 45, 35, 59, 46, 17, 16, 54, 67, 53, 61, 63, 26, 38, 64, 46, 34, 54, 49, 62, 38
              |66, 21, 66, 32, 65, 49, 52, 77, 70, 55, 69, 16, 49, 31, 71, 53, 25, 43, 32, 47, 30, 50, 19, 38, 23, 57, 52, 67, 48, 66, 61, 25, 44, 39, 72, 42, 50, 86, 57, 58, 35, 53, 40, 72, 4, 35, 36, 67, 61, 33, 27, 64, 61, 43, 7, 86, 36, 40, 22, 28, 57, 16, 12, 48, 21, 48, 73, 33, 63, 28, 38, 66, 16, 87, 5, 63, 27, 37, 63, 52, 17, 78, 37, 23, 42, 28, 45, 77, 7, 83, 65, 87, 55, 71, 79, 29, 60, 27, 51, 62, 70, 61, 27, 31, 91, 49, 48, 72, 63, 38, 68, 71, 17, 11, 27, 43, 53, 32, 42, 64, 44, 41, 25, 69, 32, 27, 31, 32, 50, 14, 17, 16, 49, 47, 17, 33, 32, 5, 12, 17, 17, 44, 76, 56, 62, 60, 37, 70, 34, 70, 31, 37, 31, 69, 50, 43, 36, 43, 74, 70, 16, 33, 48, 16, 26, 22, 81, 50, 70, 72, 49, 54, 35, 64, 37, 62, 62, 42, 78, 28, 31, 47, 66, 51, 13, 30, 68, 80, 50, 74, 76, 26, 43, 70, 32, 28, 40, 45, 74, 52
              |90, 47, 102, 55, 104, 86, 93, 118, 93, 97, 98, 45, 85, 19, 111, 95, 24, 84, 60, 73, 41, 89, 23, 6, 51, 97, 93, 106, 81, 94, 101, 24, 84, 61, 112, 66, 91, 127, 80, 98, 65, 84, 81, 112, 45, 77, 67, 108, 95, 23, 26, 103, 99, 71, 44, 127, 55, 80, 62, 22, 91, 53, 30, 87, 51, 77, 95, 71, 103, 66, 64, 103, 47, 129, 39, 101, 67, 58, 93, 69, 26, 119, 77, 60, 83, 64, 83, 100, 36, 124, 105, 129, 96, 99, 120, 64, 91, 20, 88, 86, 110, 101, 42, 63, 132, 86, 75, 113, 89, 8, 102, 96, 45, 44, 63, 66, 71, 43, 76, 100, 81, 81, 48, 102, 25, 16, 69, 71, 70, 42, 48, 32, 90, 67, 48, 68, 58, 38, 37, 42, 57, 3, 98, 97, 98, 101, 72, 110, 70, 110, 17, 79, 29, 110, 84, 79, 77, 85, 115, 109, 47, 62, 74, 56, 54, 63, 123, 74, 104, 114, 89, 96, 76, 91, 75, 102, 86, 63, 120, 15, 11, 83, 100, 76, 48, 72, 107, 120, 67, 115, 117, 58, 77, 102, 16, 48, 2, 62, 113, 94
              |89, 9, 86, 55, 84, 48, 60, 84, 55, 69, 91, 10, 70, 22, 75, 68, 16, 59, 55, 33, 6, 52, 25, 39, 12, 61, 67, 86, 41, 54, 78, 16, 48, 62, 88, 65, 57, 95, 81, 62, 59, 75, 47, 76, 27, 49, 27, 74, 55, 19, 14, 67, 81, 31, 30, 95, 16, 57, 42, 39, 79, 39, 24, 68, 14, 71, 57, 54, 81, 31, 24, 86, 39, 98, 27, 62, 47, 60, 53, 32, 20, 92, 41, 45, 51, 51, 45, 62, 26, 89, 69, 97, 68, 59, 86, 52, 82, 20, 71, 85, 75, 64, 47, 24, 100, 69, 35, 84, 86, 33, 62, 57, 40, 14, 26, 27, 34, 9, 65, 85, 64, 45, 48, 62, 18, 25, 52, 36, 32, 36, 13, 33, 66, 29, 40, 29, 55, 19, 11, 7, 26, 41, 60, 72, 59, 66, 33, 87, 33, 74, 23, 47, 14, 75, 45, 65, 54, 56, 78, 88, 39, 56, 34, 26, 14, 41, 93, 35, 64, 85, 66, 63, 49, 51, 37, 67, 85, 24, 89, 25, 32, 68, 60, 75, 16, 46, 86, 85, 30, 81, 83, 20, 38, 62, 24, 8, 38, 25, 76, 64
              |66, 44, 80, 31, 82, 78, 79, 103, 95, 79, 74, 40, 63, 29, 99, 77, 28, 65, 36, 72, 45, 78, 16, 18, 48, 86, 75, 85, 76, 92, 81, 28, 72, 37, 92, 43, 77, 112, 56, 86, 42, 61, 68, 100, 31, 61, 63, 95, 89, 34, 33, 92, 77, 69, 28, 111, 57, 62, 44, 2, 67, 34, 18, 66, 46, 54, 97, 50, 82, 57, 63, 81, 26, 112, 24, 92, 47, 34, 90, 73, 21, 100, 66, 40, 69, 42, 74, 102, 22, 110, 93, 112, 79, 98, 106, 43, 68, 26, 67, 62, 98, 89, 18, 58, 116, 65, 74, 96, 65, 27, 96, 97, 24, 37, 55, 67, 75, 48, 53, 77, 60, 70, 25, 97, 35, 21, 49, 61, 72, 22, 42, 13, 71, 69, 28, 61, 35, 27, 32, 39, 46, 27, 100, 78, 90, 88, 65, 89, 62, 98, 28, 64, 38, 96, 78, 57, 58, 69, 102, 88, 27, 39, 73, 44, 50, 46, 105, 75, 98, 96, 70, 81, 60, 90, 66, 90, 62, 65, 103, 22, 17, 61, 94, 52, 40, 55, 86, 107, 71, 102, 103, 53, 71, 98, 27, 48, 23, 66, 102, 78
              |91, 24, 94, 55, 93, 64, 74, 98, 68, 81, 96, 23, 77, 6, 90, 80, 4, 70, 57, 48, 16, 67, 18, 25, 27, 76, 79, 96, 57, 69, 89, 4, 63, 62, 99, 66, 71, 109, 82, 77, 62, 80, 61, 91, 32, 61, 43, 88, 71, 4, 1, 82, 89, 46, 34, 109, 30, 67, 50, 30, 85, 44, 22, 76, 28, 75, 70, 61, 91, 45, 39, 94, 41, 112, 29, 78, 55, 59, 68, 44, 15, 104, 56, 51, 64, 56, 61, 75, 27, 104, 84, 111, 81, 74, 100, 57, 87, 7, 79, 87, 90, 79, 45, 40, 114, 77, 50, 97, 89, 17, 78, 71, 41, 25, 41, 41, 46, 18, 70, 92, 72, 60, 47, 77, 4, 13, 60, 50, 45, 37, 26, 30, 76, 42, 42, 45, 57, 23, 17, 20, 38, 25, 73, 83, 75, 81, 49, 98, 48, 89, 8, 60, 5, 90, 60, 71, 64, 68, 94, 98, 41, 59, 49, 38, 30, 50, 106, 49, 79, 98, 76, 77, 60, 66, 53, 82, 87, 38, 102, 12, 19, 75, 76, 76, 28, 56, 96, 100, 42, 95, 98, 35, 54, 77, 9, 23, 23, 37, 91, 77
              |119, 40, 103, 90, 98, 36, 59, 75, 12, 75, 117, 44, 92, 62, 61, 76, 58, 73, 88, 13, 40, 45, 68, 81, 37, 51, 77, 100, 24, 18, 89, 58, 46, 96, 95, 98, 55, 87, 112, 54, 90, 101, 51, 61, 61, 62, 25, 65, 30, 58, 55, 53, 98, 18, 65, 89, 26, 74, 67, 82, 103, 70, 66, 86, 39, 100, 14, 79, 93, 41, 21, 102, 75, 94, 64, 43, 71, 95, 19, 13, 63, 93, 44, 74, 55, 79, 39, 19, 65, 78, 57, 91, 74, 20, 74, 80, 107, 62, 90, 115, 64, 53, 86, 31, 93, 89, 14, 84, 114, 73, 35, 16, 76, 48, 38, 17, 11, 38, 92, 104, 85, 45, 85, 32, 56, 67, 77, 43, 11, 73, 43, 74, 77, 14, 75, 32, 89, 58, 52, 45, 48, 81, 17, 82, 39, 58, 31, 98, 35, 61, 64, 56, 52, 67, 28, 88, 72, 64, 65, 99, 74, 89, 13, 50, 34, 65, 91, 10, 35, 86, 79, 62, 62, 14, 37, 59, 115, 18, 85, 67, 74, 90, 33, 106, 47, 63, 98, 71, 14, 71, 73, 34, 28, 30, 65, 35, 79, 19, 59, 69
              |34, 53, 45, 6, 49, 69, 60, 81, 99, 52, 39, 49, 29, 57, 81, 50, 53, 39, 2, 77, 62, 65, 41, 53, 55, 70, 48, 51, 73, 92, 50, 53, 59, 7, 61, 9, 60, 86, 25, 69, 6, 25, 53, 82, 30, 41, 64, 74, 83, 61, 57, 76, 43, 71, 26, 85, 68, 35, 25, 37, 32, 19, 36, 34, 52, 18, 102, 21, 50, 51, 69, 47, 17, 84, 30, 80, 24, 7, 89, 83, 43, 71, 54, 18, 52, 14, 64, 105, 31, 87, 76, 85, 53, 98, 85, 14, 32, 53, 33, 29, 78, 73, 17, 59, 89, 32, 77, 69, 31, 60, 89, 99, 17, 44, 53, 74, 85, 65, 18, 42, 28, 58, 11, 91, 61, 50, 21, 52, 81, 21, 48, 29, 44, 78, 16, 59, 1, 37, 45, 50, 42, 62, 105, 49, 80, 70, 62, 57, 58, 80, 57, 47, 61, 75, 73, 23, 32, 47, 83, 55, 17, 4, 77, 39, 57, 28, 77, 80, 91, 68, 41, 61, 40, 91, 59, 71, 29, 74, 76, 52, 50, 28, 87, 19, 44, 35, 53, 87, 81, 80, 81, 55, 67, 93, 57, 60, 58, 77, 85, 54
              |28, 70, 14, 37, 19, 68, 50, 63, 105, 34, 20, 66, 6, 84, 68, 32, 78, 27, 30, 86, 82, 60, 68, 83, 70, 62, 30, 21, 76, 94, 24, 78, 56, 33, 34, 28, 52, 64, 28, 60, 25, 9, 49, 69, 50, 37, 73, 60, 81, 86, 81, 66, 13, 80, 48, 62, 83, 25, 34, 68, 5, 38, 62, 13, 66, 16, 108, 21, 23, 57, 80, 16, 42, 59, 53, 74, 29, 35, 91, 96, 69, 45, 55, 31, 47, 26, 63, 110, 55, 68, 64, 62, 36, 100, 67, 25, 9, 80, 9, 26, 64, 64, 48, 68, 66, 10, 84, 46, 22, 89, 86, 103, 44, 62, 61, 85, 97, 84, 13, 11, 13, 56, 42, 89, 86, 77, 23, 55, 92, 47, 65, 57, 26, 89, 41, 66, 32, 59, 66, 69, 53, 92, 110, 27, 76, 59, 67, 28, 63, 67, 84, 44, 85, 59, 74, 11, 26, 38, 69, 26, 42, 28, 85, 51, 71, 35, 53, 88, 88, 44, 23, 49, 36, 94, 61, 59, 26, 86, 54, 79, 79, 8, 85, 24, 60, 35, 24, 70, 94, 63, 64, 67, 71, 92, 84, 77, 87, 90, 73, 39
              |62, 24, 56, 33, 55, 41, 40, 65, 68, 43, 62, 20, 40, 42, 60, 41, 36, 31, 30, 45, 36, 40, 31, 50, 25, 47, 40, 57, 42, 61, 50, 36, 34, 38, 60, 40, 38, 74, 55, 47, 32, 46, 29, 61, 9, 23, 33, 56, 54, 43, 38, 53, 51, 40, 11, 74, 38, 28, 12, 39, 49, 12, 24, 38, 21, 43, 70, 25, 52, 21, 37, 56, 18, 75, 15, 54, 17, 37, 58, 53, 29, 66, 27, 16, 30, 22, 36, 74, 18, 71, 54, 75, 43, 67, 68, 23, 52, 38, 41, 58, 59, 50, 32, 27, 79, 39, 45, 60, 58, 50, 60, 68, 20, 16, 21, 42, 54, 38, 36, 55, 34, 31, 28, 62, 43, 39, 22, 23, 50, 19, 19, 26, 38, 47, 18, 28, 31, 17, 22, 23, 10, 56, 73, 44, 53, 49, 31, 59, 27, 59, 43, 26, 41, 57, 43, 35, 25, 31, 63, 59, 17, 30, 46, 8, 26, 11, 69, 48, 63, 60, 37, 43, 23, 59, 29, 51, 58, 43, 66, 40, 43, 38, 59, 48, 15, 18, 57, 68, 51, 63, 65, 24, 37, 64, 43, 32, 52, 46, 63, 40
              |62, 35, 47, 42, 43, 31, 24, 48, 65, 27, 59, 32, 34, 58, 44, 26, 52, 17, 37, 46, 48, 26, 48, 67, 33, 32, 25, 45, 37, 55, 36, 52, 20, 45, 45, 45, 23, 57, 57, 31, 36, 44, 14, 45, 26, 7, 33, 39, 45, 59, 53, 38, 41, 40, 28, 57, 45, 16, 14, 56, 45, 23, 41, 29, 30, 44, 68, 22, 39, 17, 40, 46, 32, 58, 32, 42, 15, 46, 53, 56, 45, 50, 16, 21, 14, 25, 25, 71, 35, 54, 39, 58, 26, 61, 51, 26, 49, 55, 33, 59, 42, 35, 46, 28, 62, 31, 44, 43, 57, 67, 50, 64, 34, 30, 22, 45, 57, 49, 35, 47, 27, 19, 40, 53, 58, 55, 20, 16, 52, 34, 30, 43, 23, 50, 31, 26, 39, 33, 37, 36, 16, 73, 71, 30, 41, 33, 27, 45, 23, 43, 59, 9, 55, 40, 36, 30, 14, 14, 47, 46, 31, 36, 45, 16, 33, 11, 52, 48, 53, 44, 24, 26, 6, 55, 22, 34, 59, 47, 49, 57, 60, 32, 49, 51, 27, 5, 44, 52, 55, 46, 48, 28, 31, 55, 60, 41, 69, 51, 48, 23
              |62, 42, 75, 26, 77, 75, 75, 99, 93, 74, 70, 38, 58, 31, 95, 72, 29, 60, 32, 70, 45, 74, 16, 22, 45, 82, 70, 80, 73, 90, 76, 29, 68, 33, 87, 38, 73, 107, 52, 82, 37, 56, 64, 96, 27, 56, 61, 90, 86, 36, 33, 88, 72, 66, 23, 106, 56, 57, 39, 6, 63, 29, 16, 61, 44, 49, 96, 45, 77, 53, 61, 77, 21, 107, 20, 88, 43, 30, 88, 72, 20, 95, 62, 35, 65, 37, 70, 100, 18, 105, 89, 107, 74, 95, 102, 38, 63, 27, 62, 58, 93, 85, 14, 55, 111, 60, 72, 91, 61, 30, 93, 95, 19, 34, 52, 65, 74, 47, 48, 72, 55, 66, 20, 94, 37, 22, 44, 57, 71, 17, 40, 9, 67, 68, 23, 58, 30, 24, 30, 37, 42, 31, 99, 73, 87, 84, 62, 84, 59, 94, 30, 60, 38, 91, 75, 52, 53, 64, 98, 83, 22, 34, 71, 41, 48, 41, 100, 73, 95, 91, 65, 77, 56, 87, 62, 85, 58, 63, 98, 24, 20, 56, 91, 48, 37, 50, 81, 103, 70, 97, 99, 50, 68, 95, 30, 47, 27, 64, 98, 73
              |43, 44, 38, 22, 38, 52, 42, 63, 85, 36, 42, 41, 21, 58, 63, 33, 52, 22, 16, 64, 56, 48, 44, 60, 45, 52, 31, 41, 57, 76, 36, 52, 42, 24, 48, 23, 42, 69, 36, 51, 15, 26, 35, 64, 24, 23, 51, 57, 66, 60, 55, 58, 34, 58, 22, 68, 59, 18, 9, 46, 29, 12, 37, 21, 42, 23, 88, 5, 37, 36, 57, 39, 19, 68, 28, 63, 6, 25, 73, 72, 43, 56, 38, 5, 34, 4, 47, 91, 30, 70, 58, 69, 36, 82, 67, 4, 32, 54, 23, 39, 60, 55, 30, 45, 73, 21, 63, 52, 38, 64, 72, 84, 21, 36, 39, 62, 73, 58, 16, 36, 16, 40, 23, 74, 60, 52, 4, 36, 69, 23, 39, 34, 27, 66, 17, 45, 18, 33, 40, 43, 29, 68, 91, 33, 63, 52, 47, 45, 43, 62, 58, 30, 59, 57, 57, 15, 15, 29, 65, 44, 18, 15, 64, 27, 46, 12, 61, 67, 74, 52, 26, 43, 22, 76, 43, 53, 39, 62, 60, 54, 55, 19, 70, 30, 35, 17, 42, 69, 70, 62, 64, 43, 52, 76, 59, 52, 64, 66, 67, 36
              |39, 80, 3, 53, 6, 70, 48, 54, 108, 30, 27, 77, 19, 98, 63, 28, 92, 30, 47, 91, 93, 61, 83, 99, 79, 60, 27, 6, 80, 96, 16, 92, 58, 49, 20, 45, 51, 53, 43, 57, 41, 25, 52, 64, 63, 42, 79, 54, 82, 100, 94, 63, 6, 86, 62, 50, 92, 30, 45, 84, 18, 52, 76, 19, 76, 33, 111, 34, 12, 64, 87, 1, 57, 46, 67, 73, 40, 52, 93, 103, 83, 32, 59, 45, 49, 41, 65, 113, 70, 59, 60, 49, 32, 102, 58, 40, 21, 94, 16, 39, 59, 61, 65, 75, 53, 18, 89, 36, 34, 103, 85, 105, 59, 73, 69, 91, 103, 95, 30, 7, 24, 59, 58, 89, 99, 92, 36, 61, 98, 62, 75, 73, 26, 97, 56, 72, 49, 72, 79, 80, 62, 107, 113, 23, 75, 55, 72, 14, 69, 62, 98, 48, 98, 53, 77, 25, 33, 39, 63, 11, 57, 44, 91, 61, 80, 46, 40, 94, 87, 33, 24, 47, 41, 97, 66, 55, 39, 94, 43, 94, 94, 21, 85, 40, 71, 42, 10, 63, 101, 56, 56, 75, 75, 92, 98, 87, 103, 98, 68, 37
              |84, 24, 89, 48, 89, 64, 72, 97, 72, 78, 89, 23, 72, 7, 89, 76, 3, 66, 50, 51, 21, 67, 11, 21, 28, 75, 75, 91, 59, 72, 84, 3, 62, 55, 95, 59, 69, 107, 75, 76, 55, 74, 59, 90, 28, 58, 45, 87, 72, 10, 7, 81, 84, 49, 28, 107, 34, 63, 46, 24, 79, 38, 15, 72, 29, 68, 75, 56, 86, 44, 42, 89, 35, 109, 23, 78, 50, 52, 71, 49, 8, 100, 55, 46, 62, 50, 61, 79, 21, 103, 84, 109, 77, 77, 99, 51, 81, 4, 74, 80, 89, 79, 38, 41, 112, 72, 53, 94, 82, 16, 80, 75, 34, 23, 41, 45, 51, 23, 64, 87, 67, 59, 41, 80, 11, 7, 54, 49, 49, 30, 26, 22, 72, 46, 36, 45, 50, 18, 15, 20, 36, 24, 78, 79, 76, 80, 49, 93, 48, 89, 8, 58, 12, 88, 62, 66, 60, 65, 93, 93, 35, 52, 52, 35, 31, 46, 103, 53, 81, 95, 72, 75, 57, 69, 52, 81, 80, 42, 100, 7, 14, 70, 77, 70, 26, 53, 91, 99, 47, 94, 96, 36, 55, 80, 9, 26, 20, 42, 91, 74
              |46, 46, 33, 32, 32, 46, 33, 54, 81, 26, 43, 43, 18, 64, 54, 23, 58, 12, 25, 62, 59, 40, 51, 68, 46, 44, 22, 34, 53, 72, 28, 58, 35, 33, 39, 31, 34, 60, 42, 43, 23, 28, 28, 55, 29, 15, 49, 47, 60, 66, 60, 50, 28, 56, 29, 59, 59, 8, 11, 54, 29, 20, 44, 15, 43, 28, 84, 7, 30, 33, 55, 33, 28, 58, 34, 55, 7, 34, 69, 72, 50, 47, 32, 13, 27, 14, 41, 87, 37, 60, 49, 59, 26, 77, 57, 13, 32, 60, 18, 43, 51, 47, 39, 44, 63, 16, 60, 43, 41, 71, 65, 80, 30, 39, 37, 60, 72, 61, 19, 32, 11, 34, 33, 68, 66, 60, 6, 32, 68, 32, 41, 42, 18, 65, 26, 42, 27, 39, 45, 46, 29, 76, 87, 24, 56, 43, 43, 37, 39, 53, 65, 22, 64, 47, 52, 14, 5, 20, 56, 36, 27, 24, 61, 27, 47, 12, 52, 64, 68, 42, 16, 34, 14, 71, 38, 44, 43, 62, 50, 61, 63, 17, 64, 36, 37, 11, 34, 60, 70, 53, 54, 43, 47, 70, 65, 54, 71, 66, 58, 27
              |78, 27, 61, 54, 57, 18, 24, 48, 50, 36, 75, 27, 50, 55, 40, 36, 49, 31, 50, 30, 40, 18, 50, 68, 24, 26, 36, 58, 21, 40, 49, 49, 13, 59, 56, 59, 21, 59, 72, 27, 51, 59, 12, 41, 30, 19, 18, 38, 31, 54, 49, 32, 55, 25, 34, 60, 33, 31, 27, 60, 60, 34, 44, 44, 22, 59, 52, 38, 52, 5, 26, 60, 41, 63, 37, 31, 30, 59, 37, 42, 46, 57, 6, 34, 16, 39, 13, 55, 39, 54, 34, 62, 35, 46, 50, 40, 64, 53, 48, 75, 40, 30, 55, 15, 65, 46, 29, 49, 73, 66, 37, 48, 43, 27, 10, 31, 42, 41, 50, 62, 42, 10, 51, 39, 53, 55, 35, 0, 37, 42, 24, 48, 36, 36, 40, 11, 52, 35, 34, 30, 15, 73, 55, 41, 30, 30, 12, 57, 8, 39, 57, 14, 50, 40, 21, 46, 30, 23, 44, 59, 40, 50, 30, 16, 23, 24, 58, 33, 40, 51, 37, 27, 20, 40, 7, 32, 75, 33, 53, 56, 61, 48, 36, 66, 23, 21, 57, 50, 41, 45, 47, 17, 16, 41, 57, 32, 69, 38, 42, 30
              |74, 69, 41, 71, 33, 41, 19, 16, 79, 14, 64, 68, 43, 95, 25, 16, 89, 27, 64, 68, 82, 32, 86, 104, 67, 27, 18, 33, 53, 66, 23, 89, 32, 71, 21, 68, 23, 20, 74, 24, 61, 55, 31, 25, 63, 31, 59, 16, 50, 95, 90, 27, 36, 63, 65, 19, 76, 31, 47, 92, 51, 58, 78, 35, 64, 60, 81, 46, 26, 48, 67, 38, 66, 21, 69, 38, 45, 73, 63, 81, 83, 16, 38, 52, 27, 53, 39, 82, 72, 22, 24, 21, 13, 70, 20, 53, 55, 92, 38, 72, 21, 26, 79, 57, 24, 38, 65, 7, 68, 104, 51, 75, 68, 66, 53, 71, 81, 83, 52, 44, 39, 35, 72, 55, 94, 93, 45, 43, 76, 70, 65, 79, 23, 75, 65, 53, 66, 71, 74, 72, 53, 110, 83, 19, 42, 20, 51, 26, 49, 24, 96, 31, 91, 15, 49, 45, 34, 23, 24, 29, 65, 63, 67, 53, 66, 46, 15, 70, 53, 9, 25, 16, 32, 68, 44, 20, 72, 74, 11, 94, 98, 43, 51, 69, 63, 37, 29, 24, 80, 17, 18, 60, 50, 58, 97, 74, 106, 79, 30, 14
              |79, 14, 68, 50, 65, 28, 37, 62, 50, 47, 78, 13, 54, 42, 53, 47, 36, 39, 48, 28, 27, 31, 38, 56, 11, 39, 46, 67, 26, 44, 58, 36, 26, 56, 67, 57, 34, 72, 72, 40, 49, 62, 25, 54, 22, 28, 15, 52, 39, 41, 35, 45, 63, 22, 26, 73, 23, 38, 27, 49, 64, 30, 32, 50, 9, 60, 53, 40, 61, 8, 20, 68, 35, 76, 27, 43, 32, 55, 41, 36, 33, 70, 19, 33, 28, 39, 25, 56, 29, 67, 48, 75, 47, 50, 64, 40, 68, 39, 54, 75, 53, 43, 48, 9, 78, 52, 27, 62, 75, 52, 46, 50, 37, 14, 5, 25, 37, 28, 52, 68, 47, 23, 45, 47, 40, 42, 38, 13, 32, 34, 11, 38, 45, 30, 35, 11, 49, 23, 21, 17, 8, 60, 56, 51, 41, 44, 15, 67, 12, 53, 43, 25, 36, 53, 28, 50, 36, 34, 57, 68, 34, 48, 28, 10, 11, 25, 71, 30, 48, 63, 46, 40, 28, 42, 17, 45, 75, 26, 66, 43, 48, 53, 44, 66, 10, 26, 66, 63, 34, 59, 61, 7, 21, 48, 44, 19, 56, 30, 55, 42
              |75, 37, 86, 39, 87, 74, 78, 103, 87, 81, 82, 34, 69, 18, 98, 79, 18, 67, 44, 65, 36, 76, 8, 11, 41, 84, 77, 89, 71, 86, 85, 18, 70, 46, 96, 51, 76, 112, 65, 84, 49, 68, 66, 98, 30, 62, 57, 94, 84, 23, 22, 90, 82, 62, 28, 112, 49, 64, 46, 9, 74, 37, 14, 70, 40, 62, 89, 54, 86, 53, 56, 87, 30, 113, 23, 89, 50, 43, 84, 65, 13, 103, 63, 44, 69, 47, 70, 94, 21, 109, 92, 113, 81, 91, 106, 48, 75, 16, 72, 71, 96, 87, 27, 53, 117, 70, 67, 98, 74, 17, 92, 89, 29, 32, 51, 59, 66, 39, 59, 83, 65, 68, 32, 92, 25, 10, 53, 58, 64, 25, 36, 15, 74, 61, 32, 56, 42, 23, 25, 32, 43, 19, 93, 81, 86, 87, 60, 93, 58, 97, 17, 64, 27, 95, 73, 62, 61, 69, 101, 93, 31, 46, 66, 42, 44, 47, 107, 67, 93, 98, 73, 81, 61, 83, 62, 88, 71, 57, 104, 11, 7, 67, 89, 61, 35, 56, 90, 106, 62, 101, 103, 48, 66, 93, 17, 40, 15, 57, 100, 79
              |72, 13, 69, 40, 68, 43, 49, 74, 62, 55, 74, 9, 53, 30, 67, 53, 24, 43, 39, 39, 24, 45, 23, 41, 15, 53, 52, 70, 41, 58, 62, 24, 39, 46, 72, 49, 46, 83, 64, 54, 42, 58, 36, 68, 10, 34, 29, 64, 54, 31, 25, 59, 64, 35, 14, 84, 28, 41, 25, 34, 62, 22, 17, 51, 13, 54, 65, 37, 65, 22, 30, 69, 24, 86, 13, 58, 30, 45, 56, 44, 19, 77, 32, 28, 39, 34, 39, 69, 14, 80, 61, 85, 54, 64, 76, 34, 65, 27, 54, 68, 66, 56, 35, 23, 89, 52, 40, 71, 69, 40, 61, 63, 25, 4, 20, 35, 45, 26, 48, 68, 47, 37, 33, 62, 30, 28, 35, 27, 42, 22, 9, 23, 50, 39, 24, 26, 39, 8, 9, 10, 13, 46, 68, 57, 56, 57, 30, 72, 27, 66, 31, 35, 28, 65, 43, 47, 38, 42, 70, 72, 23, 40, 40, 12, 17, 24, 80, 42, 63, 71, 50, 52, 34, 56, 31, 58, 68, 34, 76, 30, 34, 51, 59, 58, 5, 30, 70, 76, 42, 71, 73, 18, 36, 63, 32, 20, 42, 37, 69, 51
              |34, 52, 34, 19, 36, 60, 48, 68, 93, 39, 34, 48, 17, 63, 69, 36, 58, 26, 12, 72, 63, 55, 48, 63, 53, 59, 34, 39, 66, 85, 36, 58, 49, 18, 48, 16, 49, 73, 28, 58, 8, 18, 43, 70, 31, 30, 59, 62, 74, 66, 61, 65, 31, 67, 28, 72, 67, 22, 18, 47, 23, 18, 41, 21, 50, 15, 96, 8, 37, 45, 65, 35, 22, 70, 33, 70, 14, 20, 82, 81, 48, 57, 46, 12, 41, 6, 55, 99, 35, 74, 64, 72, 40, 90, 72, 5, 25, 59, 21, 30, 66, 62, 29, 54, 76, 19, 71, 55, 30, 68, 80, 92, 23, 43, 47, 70, 82, 66, 8, 32, 15, 48, 22, 82, 66, 57, 9, 44, 77, 27, 47, 37, 30, 75, 20, 53, 14, 39, 47, 50, 37, 71, 99, 35, 71, 58, 55, 44, 51, 68, 63, 37, 65, 62, 65, 11, 20, 35, 71, 43, 21, 10, 72, 35, 54, 21, 64, 75, 82, 54, 28, 49, 29, 84, 51, 59, 30, 71, 63, 59, 59, 15, 78, 22, 43, 25, 40, 74, 79, 67, 69, 52, 60, 85, 64, 60, 67, 74, 73, 41
              |38, 71, 8, 46, 8, 63, 43, 52, 101, 26, 28, 68, 11, 89, 59, 23, 83, 22, 39, 83, 84, 55, 74, 90, 70, 55, 21, 11, 72, 89, 13, 83, 51, 43, 22, 38, 45, 53, 40, 52, 34, 21, 45, 60, 54, 34, 71, 51, 76, 91, 85, 58, 3, 78, 53, 51, 83, 22, 36, 75, 15, 43, 67, 10, 67, 27, 104, 25, 11, 56, 78, 8, 49, 48, 58, 67, 31, 45, 87, 95, 74, 34, 51, 36, 42, 32, 58, 106, 61, 58, 56, 50, 27, 95, 57, 31, 19, 85, 8, 37, 55, 56, 57, 67, 54, 9, 81, 35, 32, 95, 79, 98, 51, 64, 60, 83, 95, 86, 23, 9, 15, 51, 50, 83, 90, 83, 27, 53, 90, 54, 66, 64, 19, 88, 47, 64, 41, 63, 69, 71, 53, 98, 106, 18, 69, 50, 64, 17, 61, 58, 89, 40, 89, 50, 70, 17, 24, 32, 60, 15, 48, 37, 83, 52, 71, 37, 41, 86, 81, 33, 16, 41, 33, 90, 58, 51, 37, 85, 43, 85, 86, 13, 78, 36, 62, 34, 13, 60, 93, 53, 54, 66, 67, 86, 89, 78, 94, 90, 64, 31
              |51, 71, 17, 55, 10, 55, 33, 40, 94, 15, 41, 68, 22, 92, 47, 13, 85, 19, 48, 78, 84, 46, 79, 96, 69, 45, 13, 11, 66, 81, 0, 85, 43, 53, 11, 49, 36, 40, 52, 42, 44, 33, 39, 48, 57, 30, 67, 39, 67, 93, 87, 47, 13, 73, 57, 38, 81, 21, 39, 82, 28, 48, 72, 16, 66, 39, 97, 31, 4, 52, 75, 15, 55, 35, 62, 57, 34, 56, 79, 90, 77, 22, 45, 41, 35, 39, 51, 98, 65, 45, 45, 37, 16, 87, 44, 38, 32, 88, 17, 50, 43, 45, 65, 63, 42, 18, 76, 22, 45, 99, 70, 91, 57, 65, 57, 79, 91, 86, 33, 21, 21, 45, 58, 73, 92, 87, 32, 49, 86, 59, 66, 70, 13, 84, 53, 60, 50, 66, 71, 71, 52, 104, 99, 8, 60, 40, 59, 9, 56, 46, 92, 35, 90, 38, 63, 26, 25, 26, 47, 10, 54, 46, 78, 52, 69, 39, 29, 81, 72, 20, 12, 31, 30, 83, 53, 40, 50, 82, 30, 89, 91, 23, 69, 48, 62, 33, 8, 48, 89, 41, 41, 64, 61, 76, 93, 77, 99, 86, 52, 22
              |84, 23, 68, 59, 64, 17, 30, 53, 43, 43, 82, 24, 57, 52, 43, 43, 46, 38, 55, 23, 35, 21, 49, 67, 20, 29, 43, 66, 16, 35, 56, 46, 17, 64, 63, 64, 26, 64, 78, 31, 56, 66, 18, 44, 32, 27, 11, 42, 28, 51, 46, 35, 63, 17, 36, 65, 27, 38, 33, 61, 67, 38, 44, 51, 19, 65, 46, 44, 59, 6, 19, 67, 45, 69, 38, 31, 36, 63, 32, 35, 45, 64, 11, 40, 22, 45, 14, 49, 40, 58, 37, 67, 42, 41, 54, 46, 71, 50, 55, 81, 43, 33, 58, 9, 70, 53, 22, 56, 79, 63, 35, 42, 46, 25, 6, 23, 35, 36, 57, 69, 49, 14, 54, 36, 50, 53, 42, 7, 30, 45, 21, 49, 43, 28, 44, 4, 56, 35, 33, 27, 16, 71, 49, 48, 29, 34, 5, 64, 1, 42, 54, 21, 46, 44, 17, 53, 37, 30, 47, 66, 44, 55, 23, 18, 18, 30, 64, 26, 37, 57, 45, 33, 27, 34, 6, 36, 81, 26, 59, 54, 60, 55, 33, 72, 22, 27, 64, 53, 33, 49, 52, 12, 10, 37, 55, 27, 67, 31, 44, 37
              |98, 81, 64, 94, 56, 44, 32, 8, 75, 37, 88, 81, 67, 110, 16, 40, 103, 50, 87, 71, 93, 38, 103, 121, 78, 29, 42, 55, 56, 61, 47, 103, 42, 94, 42, 92, 34, 13, 98, 28, 84, 79, 44, 16, 81, 50, 66, 16, 47, 109, 103, 25, 60, 68, 83, 15, 84, 54, 68, 111, 75, 78, 96, 59, 76, 84, 77, 68, 50, 59, 73, 61, 87, 22, 87, 34, 66, 96, 60, 85, 99, 32, 49, 74, 42, 75, 45, 76, 90, 2, 21, 18, 36, 64, 4, 75, 79, 107, 62, 97, 15, 26, 100, 66, 18, 62, 68, 26, 92, 120, 44, 70, 89, 81, 64, 76, 84, 94, 76, 67, 63, 45, 94, 48, 108, 109, 68, 54, 79, 89, 78, 98, 46, 80, 85, 61, 89, 87, 89, 85, 68, 127, 78, 43, 38, 24, 58, 48, 58, 17, 111, 47, 104, 15, 51, 69, 57, 43, 13, 51, 86, 86, 70, 69, 76, 65, 24, 72, 45, 28, 49, 30, 51, 65, 53, 23, 97, 80, 19, 110, 114, 67, 45, 93, 77, 56, 51, 6, 84, 9, 8, 70, 55, 51, 112, 85, 123, 85, 18, 35
              |87, 54, 59, 74, 52, 18, 11, 22, 55, 28, 80, 55, 55, 83, 13, 30, 77, 34, 68, 46, 66, 11, 77, 96, 51, 3, 31, 53, 30, 41, 42, 77, 15, 76, 44, 75, 10, 34, 85, 1, 66, 68, 19, 13, 56, 29, 39, 12, 26, 82, 76, 6, 54, 42, 59, 35, 57, 38, 46, 87, 65, 56, 71, 47, 49, 70, 57, 51, 46, 33, 47, 57, 64, 40, 63, 15, 46, 77, 39, 59, 73, 40, 22, 53, 18, 56, 18, 58, 65, 27, 7, 38, 26, 46, 23, 56, 70, 80, 51, 85, 12, 3, 78, 39, 40, 51, 43, 31, 81, 93, 27, 51, 66, 54, 37, 50, 59, 67, 61, 62, 49, 18, 72, 31, 81, 83, 49, 28, 54, 66, 52, 74, 34, 54, 63, 34, 70, 62, 62, 58, 42, 100, 59, 35, 18, 4, 31, 48, 31, 12, 85, 23, 77, 14, 26, 55, 39, 24, 16, 51, 63, 67, 45, 43, 49, 43, 37, 48, 29, 33, 37, 11, 30, 44, 26, 5, 85, 53, 31, 84, 89, 55, 27, 79, 51, 35, 50, 22, 59, 18, 21, 43, 29, 34, 85, 58, 97, 59, 15, 21
              |78, 9, 70, 48, 68, 34, 43, 67, 53, 52, 79, 8, 56, 36, 59, 51, 30, 42, 46, 30, 23, 37, 32, 50, 8, 45, 50, 70, 31, 48, 61, 30, 32, 54, 71, 56, 40, 78, 71, 46, 48, 63, 30, 60, 18, 32, 19, 57, 44, 35, 30, 51, 65, 25, 23, 78, 22, 41, 28, 44, 65, 28, 27, 52, 5, 60, 55, 40, 64, 14, 21, 70, 32, 81, 23, 48, 33, 53, 46, 36, 28, 74, 25, 33, 33, 39, 30, 60, 24, 73, 53, 80, 51, 54, 69, 39, 69, 34, 56, 75, 59, 49, 44, 13, 83, 54, 30, 67, 74, 47, 51, 53, 34, 8, 11, 26, 38, 24, 52, 70, 49, 29, 42, 52, 34, 36, 38, 19, 33, 31, 5, 33, 49, 30, 32, 16, 47, 18, 16, 11, 9, 54, 59, 55, 46, 50, 20, 71, 18, 58, 38, 30, 31, 59, 33, 51, 38, 38, 63, 71, 32, 47, 30, 10, 9, 26, 76, 33, 53, 68, 49, 46, 32, 46, 22, 51, 75, 26, 71, 37, 43, 54, 49, 65, 5, 29, 69, 69, 34, 64, 66, 9, 26, 53, 38, 16, 50, 30, 61, 47
              |11, 75, 38, 25, 44, 85, 71, 87, 118, 58, 21, 70, 28, 79, 91, 55, 75, 48, 23, 97, 85, 79, 63, 73, 76, 83, 53, 46, 91, 110, 49, 75, 74, 18, 59, 14, 72, 89, 3, 81, 20, 16, 67, 92, 52, 54, 84, 83, 99, 83, 79, 88, 39, 91, 48, 88, 90, 44, 43, 57, 22, 40, 58, 36, 73, 11, 121, 32, 48, 70, 89, 40, 39, 85, 52, 94, 39, 21, 107, 105, 65, 71, 70, 36, 65, 30, 80, 124, 53, 93, 87, 87, 59, 115, 91, 30, 20, 76, 33, 7, 87, 85, 37, 78, 91, 33, 96, 71, 11, 81, 104, 117, 39, 66, 72, 94, 106, 87, 20, 34, 33, 73, 33, 107, 84, 72, 34, 69, 101, 43, 70, 51, 49, 99, 38, 78, 23, 59, 67, 72, 62, 82, 124, 52, 95, 81, 80, 53, 76, 90, 79, 61, 84, 83, 90, 27, 43, 58, 92, 51, 39, 22, 97, 59, 78, 45, 78, 100, 106, 69, 46, 71, 53, 109, 76, 81, 7, 95, 79, 74, 71, 28, 103, 4, 65, 50, 49, 94, 103, 87, 88, 76, 85, 109, 79, 82, 78, 98, 95, 62
              |113, 41, 95, 87, 89, 25, 48, 62, 14, 65, 110, 44, 85, 67, 49, 66, 62, 64, 84, 13, 45, 34, 70, 85, 37, 39, 67, 90, 14, 8, 80, 62, 36, 92, 84, 93, 44, 74, 107, 42, 85, 95, 42, 49, 59, 54, 22, 53, 18, 64, 60, 41, 89, 16, 63, 76, 31, 66, 62, 83, 95, 67, 67, 78, 39, 94, 17, 73, 83, 35, 22, 93, 72, 82, 64, 31, 65, 92, 7, 23, 65, 82, 36, 69, 45, 74, 29, 20, 65, 65, 45, 79, 64, 13, 62, 75, 99, 66, 82, 110, 51, 41, 85, 28, 81, 81, 11, 73, 108, 78, 22, 13, 74, 48, 33, 20, 21, 44, 86, 96, 77, 35, 82, 20, 62, 71, 71, 35, 19, 72, 43, 74, 68, 21, 72, 27, 85, 58, 53, 46, 44, 86, 20, 72, 26, 46, 24, 87, 28, 49, 69, 47, 58, 55, 17, 81, 65, 55, 52, 89, 72, 84, 12, 47, 34, 59, 79, 12, 23, 75, 70, 50, 54, 5, 29, 47, 110, 23, 73, 71, 78, 83, 21, 101, 46, 56, 88, 58, 23, 58, 60, 32, 20, 18, 70, 38, 84, 26, 47, 59
              |90, 34, 97, 53, 98, 74, 83, 108, 80, 88, 96, 33, 80, 6, 100, 86, 11, 76, 57, 60, 28, 77, 16, 14, 38, 86, 85, 100, 68, 81, 94, 11, 73, 60, 105, 65, 80, 117, 80, 87, 62, 81, 70, 101, 37, 68, 54, 98, 82, 10, 13, 92, 93, 58, 37, 118, 42, 73, 55, 24, 87, 47, 23, 81, 39, 75, 82, 65, 96, 55, 51, 98, 42, 120, 32, 89, 60, 58, 80, 56, 17, 111, 65, 54, 73, 58, 71, 87, 29, 113, 94, 119, 88, 86, 110, 59, 88, 7, 83, 86, 99, 89, 42, 51, 123, 81, 62, 104, 88, 6, 90, 83, 41, 33, 51, 53, 58, 30, 72, 95, 76, 70, 46, 89, 12, 7, 63, 60, 57, 37, 36, 28, 82, 54, 44, 55, 56, 28, 25, 30, 47, 14, 85, 89, 86, 90, 59, 103, 58, 99, 4, 69, 16, 99, 72, 74, 69, 76, 103, 103, 43, 59, 61, 46, 41, 55, 114, 61, 91, 105, 82, 86, 67, 78, 63, 92, 86, 50, 110, 5, 9, 78, 87, 75, 37, 63, 100, 109, 54, 105, 107, 46, 65, 89, 3, 35, 11, 49, 102, 85
              |93, 42, 103, 57, 104, 82, 91, 115, 87, 95, 100, 41, 86, 14, 108, 93, 19, 83, 62, 67, 36, 85, 22, 11, 47, 94, 92, 106, 76, 89, 101, 19, 81, 64, 112, 69, 88, 125, 83, 95, 67, 86, 78, 109, 44, 75, 62, 106, 90, 17, 21, 100, 99, 66, 44, 125, 50, 80, 62, 25, 92, 53, 29, 87, 47, 80, 89, 71, 102, 63, 59, 104, 48, 127, 38, 97, 66, 61, 87, 63, 24, 118, 73, 61, 81, 64, 79, 94, 36, 121, 102, 127, 95, 93, 118, 65, 93, 15, 89, 89, 107, 97, 45, 59, 130, 87, 70, 112, 92, 2, 97, 90, 46, 41, 59, 61, 65, 37, 77, 101, 82, 78, 50, 97, 19, 14, 69, 68, 64, 43, 44, 33, 89, 61, 49, 64, 60, 36, 33, 38, 54, 6, 92, 96, 94, 98, 68, 110, 66, 107, 12, 76, 23, 107, 80, 80, 76, 83, 111, 109, 48, 64, 68, 54, 49, 62, 121, 69, 99, 112, 89, 93, 75, 85, 71, 99, 89, 58, 118, 12, 11, 84, 95, 79, 45, 70, 107, 117, 61, 113, 115, 54, 73, 97, 11, 43, 6, 56, 110, 92
              |63, 59, 33, 57, 26, 38, 16, 29, 77, 2, 54, 57, 31, 83, 33, 4, 77, 13, 50, 63, 72, 30, 72, 91, 57, 28, 5, 27, 49, 65, 17, 77, 27, 57, 22, 54, 20, 34, 62, 25, 47, 43, 23, 34, 50, 18, 52, 25, 50, 84, 78, 32, 28, 57, 51, 34, 67, 17, 33, 78, 40, 44, 65, 23, 54, 47, 80, 31, 20, 38, 60, 31, 52, 34, 56, 41, 31, 59, 62, 75, 70, 25, 30, 38, 19, 39, 35, 81, 59, 35, 30, 34, 1, 70, 33, 38, 44, 80, 26, 61, 29, 29, 64, 49, 38, 26, 60, 18, 57, 92, 53, 74, 54, 55, 43, 64, 76, 73, 39, 36, 26, 29, 58, 57, 83, 80, 31, 34, 70, 56, 54, 65, 9, 69, 50, 45, 52, 58, 62, 61, 41, 97, 82, 9, 43, 24, 44, 24, 41, 32, 84, 20, 80, 24, 46, 32, 20, 11, 34, 26, 51, 49, 62, 41, 56, 32, 28, 65, 55, 19, 12, 15, 19, 66, 37, 24, 61, 67, 25, 82, 84, 30, 53, 56, 51, 23, 25, 36, 74, 29, 30, 51, 45, 60, 85, 65, 93, 72, 38, 5
              |86, 10, 76, 56, 72, 30, 42, 66, 45, 54, 85, 12, 62, 39, 57, 53, 34, 46, 54, 22, 22, 34, 38, 55, 6, 42, 53, 74, 24, 40, 65, 34, 30, 62, 73, 64, 39, 77, 79, 44, 56, 69, 30, 57, 26, 35, 11, 56, 38, 38, 32, 48, 70, 17, 31, 78, 16, 46, 34, 51, 72, 36, 34, 57, 6, 67, 47, 47, 68, 14, 13, 75, 40, 81, 31, 44, 39, 61, 38, 29, 33, 76, 24, 40, 34, 46, 27, 51, 32, 71, 51, 80, 53, 46, 68, 47, 75, 38, 61, 82, 57, 46, 52, 6, 83, 59, 22, 68, 82, 51, 45, 46, 42, 15, 9, 18, 30, 22, 59, 75, 55, 27, 50, 46, 36, 41, 45, 18, 25, 39, 10, 41, 52, 23, 40, 11, 55, 25, 21, 15, 15, 58, 51, 58, 41, 48, 15, 74, 14, 56, 41, 32, 33, 57, 27, 57, 43, 40, 60, 75, 40, 54, 22, 17, 4, 32, 76, 25, 47, 69, 53, 46, 35, 38, 19, 49, 82, 19, 72, 42, 48, 60, 43, 72, 13, 34, 73, 67, 27, 63, 65, 1, 20, 46, 42, 13, 55, 23, 57, 49
              |66, 62, 35, 61, 28, 39, 16, 25, 78, 4, 57, 60, 34, 87, 30, 7, 80, 17, 54, 64, 75, 30, 76, 95, 60, 27, 9, 28, 50, 65, 18, 80, 28, 61, 21, 59, 20, 30, 65, 24, 51, 47, 25, 31, 54, 22, 54, 22, 50, 87, 81, 30, 30, 59, 55, 29, 70, 22, 38, 82, 43, 48, 69, 26, 57, 51, 80, 36, 21, 41, 62, 33, 56, 30, 60, 40, 35, 63, 62, 77, 74, 21, 32, 43, 21, 43, 36, 81, 63, 31, 27, 30, 3, 70, 29, 43, 47, 83, 30, 64, 26, 28, 69, 51, 34, 29, 62, 14, 60, 96, 52, 74, 59, 58, 46, 66, 77, 77, 43, 38, 30, 30, 62, 56, 86, 84, 35, 36, 72, 60, 58, 70, 13, 71, 55, 47, 57, 62, 66, 64, 45, 101, 82, 11, 42, 22, 46, 24, 43, 29, 88, 23, 84, 21, 47, 36, 25, 15, 31, 26, 55, 53, 63, 45, 59, 36, 23, 66, 54, 15, 16, 14, 23, 66, 39, 22, 64, 69, 21, 86, 89, 34, 52, 60, 55, 28, 25, 32, 76, 25, 26, 53, 46, 59, 88, 68, 97, 74, 35, 6
              |25, 75, 13, 40, 19, 73, 54, 66, 110, 38, 15, 71, 11, 88, 72, 35, 83, 32, 34, 91, 87, 65, 73, 87, 75, 66, 34, 21, 81, 99, 26, 83, 61, 35, 34, 30, 56, 66, 28, 64, 28, 10, 54, 73, 55, 42, 78, 63, 86, 91, 86, 70, 14, 85, 53, 64, 89, 30, 39, 72, 3, 43, 66, 18, 72, 18, 113, 26, 24, 63, 85, 15, 47, 60, 58, 79, 34, 38, 96, 101, 73, 46, 60, 36, 52, 31, 68, 115, 60, 71, 68, 63, 39, 105, 70, 30, 6, 84, 13, 24, 68, 68, 52, 73, 67, 15, 89, 48, 19, 93, 90, 108, 48, 67, 67, 90, 102, 89, 17, 9, 18, 61, 45, 94, 91, 82, 29, 61, 97, 52, 70, 62, 31, 95, 46, 71, 35, 64, 71, 74, 58, 96, 115, 31, 80, 63, 72, 29, 68, 71, 89, 49, 90, 63, 79, 16, 31, 43, 72, 26, 47, 31, 91, 57, 76, 41, 54, 94, 92, 46, 27, 53, 41, 99, 67, 63, 24, 91, 56, 84, 83, 13, 89, 25, 66, 40, 25, 73, 99, 66, 67, 72, 76, 96, 89, 82, 91, 96, 77, 43
              |99, 84, 64, 95, 56, 47, 34, 10, 78, 38, 88, 84, 68, 112, 19, 41, 106, 51, 89, 74, 96, 41, 105, 124, 81, 32, 43, 55, 59, 64, 48, 106, 45, 96, 42, 93, 37, 11, 99, 31, 86, 80, 47, 19, 83, 52, 69, 19, 50, 112, 106, 28, 60, 71, 86, 13, 87, 56, 70, 113, 75, 80, 98, 60, 79, 85, 80, 70, 50, 62, 77, 61, 89, 21, 90, 37, 68, 97, 63, 88, 102, 31, 52, 76, 44, 77, 48, 79, 93, 4, 24, 16, 37, 67, 7, 77, 80, 110, 63, 97, 18, 29, 102, 69, 15, 63, 71, 26, 93, 123, 47, 73, 91, 84, 67, 79, 87, 97, 77, 68, 64, 47, 96, 51, 110, 112, 69, 57, 83, 92, 81, 100, 47, 83, 87, 64, 91, 90, 91, 88, 70, 129, 81, 44, 41, 27, 61, 48, 61, 20, 114, 49, 107, 18, 54, 70, 58, 45, 16, 51, 88, 87, 73, 71, 79, 68, 23, 76, 48, 28, 50, 32, 53, 68, 56, 25, 97, 83, 18, 113, 117, 68, 48, 94, 80, 59, 51, 9, 87, 12, 10, 73, 58, 54, 115, 88, 125, 88, 21, 37
              |40, 49, 33, 26, 33, 53, 40, 60, 87, 32, 38, 45, 16, 63, 61, 29, 58, 18, 19, 66, 61, 47, 49, 65, 49, 51, 27, 35, 59, 78, 31, 58, 42, 26, 42, 24, 41, 66, 35, 50, 16, 22, 35, 62, 29, 22, 54, 54, 67, 66, 60, 57, 28, 61, 28, 64, 62, 14, 13, 51, 25, 18, 42, 16, 46, 21, 90, 0, 32, 38, 60, 33, 24, 64, 33, 62, 8, 27, 75, 76, 49, 51, 38, 10, 34, 8, 48, 93, 35, 66, 56, 65, 33, 83, 64, 7, 28, 59, 18, 37, 58, 54, 34, 48, 69, 16, 65, 48, 35, 69, 72, 86, 26, 40, 42, 65, 77, 63, 13, 31, 11, 41, 27, 75, 65, 58, 2, 38, 72, 29, 43, 39, 23, 69, 22, 47, 21, 38, 45, 48, 32, 73, 93, 29, 63, 50, 49, 39, 45, 60, 64, 29, 64, 54, 58, 10, 12, 27, 63, 39, 23, 17, 66, 30, 50, 15, 57, 69, 74, 48, 21, 41, 21, 77, 44, 51, 37, 66, 56, 60, 60, 14, 71, 29, 39, 17, 36, 66, 74, 60, 61, 47, 53, 77, 64, 56, 69, 70, 65, 33
              |67, 28, 73, 31, 74, 61, 64, 88, 79, 66, 72, 24, 56, 24, 83, 64, 20, 53, 33, 56, 32, 62, 9, 26, 31, 69, 63, 76, 59, 76, 70, 20, 56, 38, 81, 42, 62, 97, 58, 70, 38, 57, 52, 84, 15, 47, 46, 79, 72, 27, 23, 76, 69, 52, 14, 97, 42, 50, 32, 16, 62, 23, 2, 56, 29, 51, 81, 40, 72, 40, 47, 74, 18, 98, 8, 75, 36, 35, 73, 58, 9, 88, 49, 30, 54, 34, 57, 86, 6, 95, 77, 98, 66, 81, 91, 35, 64, 20, 58, 63, 82, 73, 21, 41, 102, 56, 57, 83, 65, 29, 79, 80, 17, 20, 38, 51, 60, 35, 47, 71, 51, 53, 23, 80, 28, 17, 39, 44, 57, 13, 25, 6, 59, 54, 19, 44, 33, 10, 16, 23, 29, 33, 84, 66, 73, 72, 48, 79, 45, 82, 24, 49, 28, 80, 61, 49, 46, 55, 86, 79, 18, 35, 57, 28, 34, 33, 92, 59, 81, 83, 59, 66, 46, 73, 49, 74, 63, 49, 89, 19, 20, 54, 77, 52, 23, 41, 76, 92, 56, 86, 88, 36, 54, 81, 24, 33, 29, 51, 86, 64
              |36, 49, 42, 12, 44, 63, 53, 74, 93, 46, 39, 45, 25, 57, 74, 43, 52, 32, 5, 72, 59, 58, 41, 55, 50, 63, 41, 46, 67, 86, 44, 52, 52, 13, 55, 14, 53, 79, 28, 62, 6, 24, 46, 75, 26, 34, 59, 67, 76, 60, 55, 69, 39, 66, 23, 78, 64, 28, 18, 40, 30, 14, 35, 28, 47, 18, 96, 14, 45, 45, 64, 43, 15, 77, 27, 74, 17, 14, 83, 79, 42, 65, 48, 11, 45, 7, 57, 100, 29, 80, 69, 79, 46, 91, 78, 7, 31, 53, 28, 32, 71, 66, 21, 53, 83, 27, 71, 62, 33, 61, 82, 93, 16, 40, 47, 69, 80, 62, 15, 39, 23, 51, 14, 85, 60, 50, 14, 46, 76, 20, 44, 30, 37, 73, 14, 53, 7, 34, 42, 47, 36, 64, 99, 43, 73, 63, 56, 52, 52, 73, 57, 40, 60, 68, 67, 19, 25, 40, 76, 50, 15, 4, 72, 34, 52, 22, 71, 74, 84, 61, 35, 54, 33, 85, 52, 64, 32, 69, 70, 52, 51, 23, 81, 22, 40, 28, 48, 80, 77, 73, 75, 50, 61, 87, 57, 56, 59, 72, 78, 47
              |113, 33, 98, 84, 94, 33, 55, 73, 18, 71, 111, 37, 86, 56, 60, 72, 52, 68, 81, 7, 34, 42, 61, 75, 30, 49, 72, 95, 21, 21, 85, 52, 42, 89, 91, 91, 51, 85, 106, 51, 83, 95, 46, 60, 54, 56, 19, 63, 30, 52, 49, 52, 92, 13, 59, 86, 20, 68, 61, 75, 97, 64, 59, 81, 32, 94, 21, 73, 88, 35, 14, 97, 68, 92, 58, 42, 65, 88, 21, 9, 56, 90, 40, 67, 50, 73, 35, 25, 59, 76, 56, 89, 70, 24, 73, 74, 101, 56, 85, 109, 62, 51, 80, 25, 91, 83, 9, 81, 108, 67, 36, 21, 69, 42, 31, 10, 8, 32, 86, 99, 79, 41, 78, 33, 50, 61, 71, 37, 5, 66, 36, 67, 72, 8, 68, 26, 82, 51, 45, 38, 42, 75, 24, 77, 38, 55, 26, 93, 30, 59, 58, 51, 46, 65, 25, 82, 67, 59, 63, 95, 67, 82, 7, 44, 27, 58, 88, 4, 36, 83, 74, 58, 57, 17, 32, 57, 109, 12, 82, 61, 68, 85, 34, 100, 40, 57, 93, 70, 10, 69, 71, 28, 24, 32, 59, 28, 73, 14, 58, 65
              |51, 46, 34, 38, 31, 41, 27, 48, 78, 21, 47, 43, 21, 66, 48, 18, 60, 7, 31, 59, 59, 35, 54, 72, 45, 38, 17, 33, 49, 67, 25, 60, 30, 39, 36, 37, 28, 54, 48, 37, 29, 32, 23, 49, 32, 10, 46, 41, 55, 68, 62, 44, 28, 53, 32, 53, 58, 4, 14, 59, 32, 24, 47, 16, 42, 33, 80, 13, 28, 30, 53, 33, 32, 53, 37, 50, 11, 40, 64, 69, 52, 43, 28, 18, 21, 19, 36, 83, 40, 54, 43, 54, 21, 73, 51, 19, 36, 63, 20, 48, 45, 41, 45, 41, 58, 18, 57, 38, 46, 74, 60, 76, 34, 40, 35, 58, 70, 61, 24, 34, 14, 29, 38, 63, 67, 62, 12, 28, 65, 36, 41, 46, 14, 63, 31, 39, 33, 41, 46, 46, 28, 79, 83, 20, 51, 37, 40, 34, 36, 47, 67, 17, 65, 41, 47, 19, 1, 14, 50, 35, 31, 30, 58, 27, 45, 13, 47, 61, 62, 38, 13, 28, 9, 67, 34, 38, 48, 60, 45, 64, 66, 20, 59, 41, 37, 8, 33, 54, 68, 47, 48, 41, 43, 65, 68, 53, 75, 64, 52, 21
              |114, 32, 101, 84, 97, 37, 59, 77, 21, 75, 113, 36, 89, 53, 65, 75, 49, 71, 82, 10, 31, 46, 59, 72, 29, 53, 76, 98, 25, 26, 88, 49, 46, 90, 95, 92, 55, 89, 107, 56, 84, 97, 50, 65, 54, 59, 22, 67, 35, 49, 46, 56, 95, 15, 58, 91, 18, 71, 62, 73, 99, 64, 58, 83, 32, 95, 23, 75, 91, 37, 15, 100, 68, 96, 57, 47, 67, 89, 25, 4, 54, 94, 43, 68, 54, 74, 39, 28, 58, 81, 60, 94, 74, 29, 77, 75, 103, 53, 87, 110, 66, 56, 79, 26, 96, 85, 13, 85, 110, 64, 41, 25, 69, 41, 33, 10, 3, 29, 87, 101, 81, 44, 78, 38, 47, 59, 72, 40, 3, 66, 36, 66, 75, 6, 68, 29, 83, 51, 44, 37, 43, 72, 26, 81, 43, 60, 29, 97, 32, 64, 55, 54, 43, 69, 30, 84, 69, 62, 68, 98, 67, 83, 11, 45, 27, 60, 92, 8, 41, 87, 77, 62, 59, 22, 36, 61, 110, 10, 87, 58, 65, 87, 39, 101, 40, 60, 96, 75, 5, 73, 76, 28, 28, 37, 56, 27, 70, 10, 63, 68
              |94, 31, 76, 70, 70, 10, 31, 50, 34, 47, 91, 33, 65, 60, 39, 48, 55, 45, 66, 18, 41, 18, 59, 76, 27, 26, 49, 72, 5, 24, 61, 55, 18, 75, 67, 75, 27, 62, 89, 28, 67, 76, 23, 39, 43, 34, 12, 40, 17, 58, 53, 30, 70, 14, 48, 64, 29, 47, 44, 71, 76, 49, 54, 59, 27, 75, 36, 54, 65, 17, 19, 74, 56, 68, 49, 23, 46, 74, 21, 31, 54, 66, 17, 51, 27, 56, 11, 39, 51, 55, 34, 66, 46, 30, 51, 56, 80, 59, 63, 91, 40, 29, 69, 15, 68, 62, 15, 57, 89, 72, 24, 32, 58, 35, 17, 21, 31, 40, 67, 77, 58, 17, 66, 25, 57, 62, 52, 16, 26, 56, 31, 60, 49, 26, 55, 11, 68, 45, 42, 36, 28, 79, 39, 54, 20, 32, 7, 69, 10, 38, 62, 28, 53, 42, 6, 62, 45, 36, 42, 71, 55, 66, 17, 30, 25, 40, 64, 20, 26, 59, 51, 34, 35, 23, 10, 34, 91, 25, 59, 63, 69, 64, 22, 82, 32, 37, 70, 49, 31, 47, 49, 20, 1, 26, 63, 32, 76, 30, 38, 41
              |38, 50, 50, 2, 54, 70, 62, 84, 98, 56, 44, 46, 34, 53, 83, 53, 49, 42, 6, 75, 59, 66, 36, 48, 52, 72, 51, 56, 73, 91, 54, 49, 60, 9, 65, 13, 62, 90, 28, 71, 12, 31, 54, 84, 28, 43, 63, 77, 83, 57, 52, 78, 48, 70, 23, 89, 66, 38, 26, 32, 37, 18, 31, 38, 50, 24, 101, 24, 55, 51, 67, 52, 13, 88, 26, 82, 26, 7, 89, 81, 38, 75, 55, 19, 54, 17, 65, 104, 27, 90, 78, 89, 57, 97, 88, 17, 38, 49, 38, 34, 81, 75, 12, 57, 93, 37, 75, 72, 36, 55, 89, 98, 13, 41, 52, 72, 83, 62, 23, 48, 33, 59, 6, 91, 57, 45, 24, 52, 79, 17, 46, 24, 47, 76, 13, 58, 4, 33, 41, 47, 41, 57, 104, 53, 81, 72, 61, 62, 57, 82, 52, 49, 57, 77, 73, 28, 35, 50, 86, 60, 14, 9, 76, 38, 55, 29, 81, 78, 92, 72, 45, 64, 42, 90, 59, 73, 34, 72, 80, 47, 45, 33, 88, 23, 42, 37, 58, 90, 79, 83, 84, 54, 67, 93, 52, 57, 53, 74, 87, 57
              |73, 30, 56, 51, 51, 21, 21, 46, 55, 31, 70, 29, 44, 57, 39, 31, 51, 25, 46, 36, 43, 18, 50, 69, 28, 26, 31, 53, 26, 45, 43, 51, 12, 55, 51, 55, 18, 56, 68, 26, 47, 54, 8, 40, 29, 14, 24, 36, 35, 57, 51, 32, 50, 30, 33, 57, 38, 26, 23, 60, 55, 31, 44, 38, 25, 54, 57, 33, 47, 9, 31, 55, 39, 60, 36, 33, 26, 55, 42, 47, 47, 53, 6, 31, 12, 35, 16, 60, 39, 52, 34, 59, 30, 51, 48, 36, 59, 54, 43, 70, 38, 29, 53, 20, 62, 41, 34, 45, 68, 67, 41, 53, 41, 28, 14, 36, 48, 45, 45, 56, 37, 10, 48, 43, 56, 56, 31, 5, 43, 40, 27, 47, 30, 41, 38, 16, 48, 35, 36, 33, 15, 74, 60, 36, 32, 29, 17, 52, 13, 38, 59, 9, 53, 38, 25, 41, 24, 18, 43, 53, 38, 46, 35, 16, 27, 20, 54, 38, 43, 46, 32, 24, 14, 45, 11, 30, 70, 38, 50, 57, 62, 43, 39, 62, 25, 16, 51, 48, 46, 43, 45, 21, 21, 45, 59, 36, 70, 43, 42, 26
              |27, 65, 21, 30, 25, 66, 50, 65, 102, 36, 22, 61, 6, 77, 69, 33, 72, 26, 23, 82, 76, 59, 62, 77, 65, 62, 31, 27, 74, 92, 28, 72, 54, 26, 38, 22, 51, 68, 25, 60, 18, 7, 48, 70, 44, 35, 69, 61, 80, 80, 75, 66, 19, 76, 42, 66, 79, 23, 29, 61, 9, 32, 55, 14, 62, 11, 105, 16, 27, 54, 76, 23, 36, 63, 47, 74, 24, 29, 89, 92, 62, 50, 52, 25, 45, 20, 61, 108, 49, 71, 65, 66, 37, 98, 69, 19, 12, 73, 11, 24, 66, 64, 42, 64, 70, 11, 81, 49, 21, 82, 85, 100, 37, 56, 57, 81, 93, 79, 7, 18, 11, 54, 35, 88, 80, 71, 18, 52, 88, 41, 59, 51, 27, 85, 35, 62, 25, 53, 60, 63, 48, 85, 108, 30, 75, 59, 64, 34, 60, 68, 78, 42, 79, 61, 72, 6, 23, 37, 70, 32, 36, 21, 82, 47, 66, 31, 57, 85, 87, 48, 24, 50, 34, 92, 59, 60, 24, 82, 58, 73, 73, 6, 83, 20, 55, 32, 30, 72, 90, 65, 66, 63, 68, 90, 78, 72, 81, 86, 74, 40
              |70, 15, 66, 38, 65, 42, 46, 71, 63, 51, 72, 11, 50, 33, 64, 50, 27, 40, 37, 40, 26, 43, 25, 44, 16, 51, 49, 67, 40, 58, 59, 27, 37, 45, 69, 47, 44, 81, 62, 51, 40, 56, 34, 65, 9, 31, 28, 61, 53, 34, 28, 57, 61, 35, 13, 81, 30, 38, 22, 36, 59, 20, 19, 48, 13, 52, 65, 34, 62, 21, 31, 66, 23, 83, 13, 56, 27, 43, 55, 45, 21, 74, 30, 25, 36, 31, 37, 69, 15, 77, 59, 82, 51, 63, 73, 32, 62, 30, 51, 66, 64, 54, 35, 23, 86, 49, 40, 68, 67, 42, 60, 63, 24, 6, 19, 36, 47, 29, 45, 65, 44, 34, 32, 61, 33, 31, 32, 25, 43, 21, 10, 24, 47, 40, 23, 25, 38, 10, 12, 13, 10, 49, 68, 53, 54, 54, 29, 68, 26, 64, 34, 32, 31, 63, 42, 45, 35, 39, 68, 69, 22, 38, 40, 9, 18, 21, 77, 43, 62, 68, 47, 49, 31, 56, 30, 55, 66, 35, 73, 33, 37, 48, 58, 56, 6, 27, 66, 73, 43, 68, 70, 18, 35, 62, 35, 22, 45, 38, 67, 48
              |89, 33, 96, 52, 96, 73, 81, 106, 79, 87, 95, 32, 79, 5, 99, 85, 10, 74, 56, 59, 27, 76, 15, 15, 37, 84, 84, 99, 67, 80, 93, 10, 71, 60, 103, 64, 79, 116, 79, 85, 61, 80, 69, 99, 36, 67, 53, 96, 81, 10, 12, 90, 92, 57, 36, 116, 41, 72, 54, 23, 86, 46, 22, 79, 38, 74, 81, 64, 95, 54, 50, 97, 41, 118, 31, 87, 58, 57, 78, 55, 15, 109, 64, 53, 71, 57, 70, 86, 28, 112, 93, 118, 86, 85, 108, 58, 87, 6, 81, 85, 98, 88, 41, 50, 121, 79, 61, 103, 87, 7, 88, 82, 40, 32, 50, 52, 57, 29, 71, 94, 74, 68, 45, 88, 12, 6, 62, 58, 56, 36, 35, 27, 81, 53, 42, 54, 55, 27, 24, 29, 45, 15, 84, 88, 85, 89, 58, 102, 57, 98, 3, 67, 15, 98, 70, 73, 68, 74, 102, 101, 41, 58, 60, 45, 40, 54, 112, 60, 90, 103, 80, 84, 66, 77, 62, 90, 85, 49, 109, 4, 9, 77, 86, 74, 35, 62, 99, 108, 53, 103, 105, 45, 64, 88, 2, 34, 12, 48, 100, 83
              |43, 47, 55, 6, 58, 70, 64, 86, 96, 59, 49, 43, 39, 48, 85, 56, 44, 45, 11, 74, 55, 67, 32, 43, 50, 73, 55, 60, 72, 90, 58, 44, 61, 13, 69, 18, 63, 93, 33, 72, 17, 36, 55, 86, 25, 45, 62, 79, 83, 52, 48, 79, 53, 68, 21, 92, 63, 41, 27, 27, 42, 18, 27, 42, 47, 29, 99, 27, 59, 50, 65, 57, 11, 91, 23, 82, 28, 11, 88, 79, 34, 79, 55, 21, 55, 20, 65, 103, 23, 93, 80, 92, 60, 96, 90, 20, 43, 44, 43, 38, 83, 76, 7, 56, 96, 41, 74, 76, 41, 50, 89, 97, 10, 38, 51, 70, 80, 58, 28, 52, 37, 59, 1, 91, 52, 40, 27, 52, 76, 13, 43, 19, 51, 73, 12, 57, 9, 30, 38, 44, 40, 52, 102, 56, 81, 74, 60, 66, 57, 84, 48, 50, 53, 80, 73, 33, 38, 52, 87, 64, 12, 13, 74, 37, 52, 30, 84, 76, 92, 75, 49, 66, 44, 89, 58, 75, 38, 69, 83, 42, 40, 37, 88, 28, 39, 38, 62, 92, 77, 85, 87, 52, 66, 93, 48, 54, 48, 72, 89, 59
              |19, 75, 19, 35, 26, 76, 58, 71, 112, 43, 12, 71, 14, 86, 77, 40, 81, 35, 30, 92, 86, 69, 70, 84, 75, 70, 38, 27, 84, 102, 32, 81, 64, 30, 41, 25, 60, 72, 21, 68, 25, 5, 57, 77, 54, 45, 80, 68, 89, 89, 84, 75, 20, 87, 51, 70, 89, 33, 39, 68, 4, 41, 64, 21, 72, 13, 115, 26, 30, 64, 86, 22, 44, 66, 56, 83, 34, 33, 99, 102, 71, 52, 62, 35, 55, 29, 71, 118, 58, 77, 73, 69, 44, 107, 75, 28, 2, 82, 17, 18, 73, 72, 48, 74, 73, 18, 91, 54, 13, 90, 94, 110, 45, 66, 68, 91, 103, 89, 15, 15, 21, 64, 41, 97, 89, 79, 29, 63, 98, 49, 70, 59, 35, 96, 43, 73, 31, 62, 70, 73, 59, 92, 118, 36, 84, 67, 74, 35, 70, 76, 86, 52, 88, 68, 82, 17, 33, 46, 77, 32, 44, 28, 92, 57, 76, 41, 60, 95, 96, 52, 32, 58, 44, 102, 69, 68, 18, 92, 62, 81, 80, 15, 93, 19, 65, 42, 31, 79, 100, 72, 72, 73, 78, 100, 86, 82, 88, 96, 81, 48
              |95, 81, 60, 91, 52, 45, 31, 6, 77, 34, 84, 81, 64, 109, 17, 37, 103, 47, 84, 72, 93, 38, 101, 120, 78, 30, 39, 52, 56, 63, 44, 103, 41, 92, 38, 89, 33, 9, 95, 27, 81, 76, 43, 17, 79, 48, 66, 16, 48, 108, 103, 25, 56, 69, 82, 12, 84, 51, 66, 109, 72, 76, 95, 56, 76, 81, 79, 66, 46, 59, 74, 58, 85, 19, 86, 35, 64, 93, 61, 85, 98, 28, 48, 72, 41, 73, 45, 78, 89, 1, 22, 15, 33, 66, 4, 73, 76, 106, 59, 93, 15, 26, 98, 66, 15, 59, 69, 22, 89, 119, 46, 72, 87, 80, 63, 76, 85, 93, 73, 64, 60, 44, 91, 50, 107, 108, 65, 54, 80, 88, 78, 96, 43, 80, 83, 61, 87, 86, 88, 84, 67, 126, 80, 40, 39, 24, 58, 44, 57, 17, 110, 45, 104, 14, 52, 66, 54, 41, 14, 48, 84, 83, 71, 67, 76, 64, 21, 73, 47, 25, 46, 28, 49, 66, 52, 22, 93, 80, 15, 109, 113, 64, 47, 90, 76, 55, 48, 8, 85, 9, 6, 70, 55, 53, 111, 85, 122, 85, 20, 33
              |72, 13, 69, 40, 68, 43, 49, 74, 62, 55, 74, 9, 53, 30, 67, 53, 24, 43, 39, 39, 24, 45, 23, 41, 15, 53, 52, 70, 41, 58, 62, 24, 39, 46, 72, 49, 46, 83, 64, 54, 42, 58, 36, 68, 10, 34, 29, 64, 54, 31, 25, 59, 64, 35, 14, 84, 28, 41, 25, 34, 62, 22, 17, 51, 13, 54, 65, 37, 65, 22, 30, 69, 24, 86, 13, 58, 30, 45, 56, 44, 19, 77, 32, 28, 39, 34, 39, 69, 14, 80, 61, 85, 54, 64, 76, 34, 65, 27, 54, 68, 66, 56, 35, 23, 89, 52, 40, 71, 69, 40, 61, 63, 25, 4, 20, 35, 45, 26, 48, 68, 47, 37, 33, 62, 30, 28, 35, 27, 42, 22, 9, 23, 50, 39, 24, 26, 39, 8, 9, 10, 13, 46, 68, 57, 56, 57, 30, 72, 27, 66, 31, 35, 28, 65, 43, 47, 38, 42, 70, 72, 23, 40, 40, 12, 17, 24, 80, 42, 63, 71, 50, 52, 34, 56, 31, 58, 68, 34, 76, 30, 34, 51, 59, 58, 5, 30, 70, 76, 42, 71, 73, 18, 36, 63, 32, 20, 42, 37, 69, 51
              |91, 35, 71, 69, 65, 5, 25, 44, 38, 42, 87, 36, 62, 64, 33, 43, 58, 41, 65, 24, 45, 12, 61, 79, 31, 20, 43, 67, 9, 27, 56, 58, 13, 73, 61, 73, 21, 56, 86, 22, 65, 72, 18, 34, 44, 30, 17, 34, 16, 62, 57, 24, 65, 20, 48, 58, 35, 43, 42, 73, 72, 49, 56, 55, 30, 72, 41, 51, 60, 17, 25, 69, 56, 62, 50, 19, 44, 73, 24, 37, 57, 60, 13, 49, 21, 54, 5, 43, 52, 49, 28, 60, 41, 33, 45, 54, 76, 62, 59, 88, 34, 23, 69, 19, 62, 57, 21, 51, 86, 75, 23, 36, 58, 38, 19, 27, 37, 45, 64, 72, 54, 12, 65, 25, 61, 65, 49, 15, 32, 56, 34, 61, 44, 32, 55, 14, 66, 47, 45, 39, 28, 83, 43, 48, 17, 26, 10, 64, 11, 32, 66, 23, 57, 36, 7, 59, 42, 31, 37, 66, 55, 64, 23, 30, 29, 38, 58, 26, 25, 53, 47, 28, 31, 27, 8, 28, 88, 31, 53, 66, 72, 60, 21, 80, 34, 34, 64, 43, 37, 41, 43, 23, 6, 27, 67, 37, 79, 36, 33, 35
              |55, 78, 19, 63, 11, 60, 37, 38, 99, 20, 43, 76, 29, 100, 48, 19, 93, 27, 55, 84, 91, 51, 87, 104, 77, 48, 19, 10, 71, 86, 8, 93, 49, 60, 4, 56, 41, 36, 57, 45, 51, 39, 45, 49, 65, 37, 73, 40, 71, 101, 95, 50, 16, 79, 65, 34, 88, 29, 47, 90, 33, 56, 80, 23, 74, 45, 101, 39, 7, 59, 81, 16, 63, 30, 70, 60, 43, 63, 83, 97, 85, 16, 51, 49, 41, 47, 56, 102, 73, 43, 47, 33, 21, 91, 42, 46, 36, 96, 24, 54, 44, 48, 73, 70, 37, 25, 82, 20, 49, 107, 73, 95, 65, 73, 64, 85, 97, 93, 40, 23, 29, 50, 66, 77, 100, 95, 40, 55, 92, 67, 73, 78, 20, 91, 61, 66, 58, 74, 79, 79, 60, 112, 103, 14, 63, 42, 66, 3, 62, 47, 100, 41, 98, 38, 68, 34, 33, 32, 48, 6, 62, 53, 84, 59, 76, 47, 24, 87, 75, 17, 20, 35, 37, 87, 59, 42, 54, 88, 27, 97, 99, 30, 73, 54, 70, 40, 6, 47, 96, 40, 40, 71, 67, 80, 101, 85, 107, 93, 53, 26
              |85, 12, 84, 50, 83, 52, 62, 86, 61, 69, 88, 11, 68, 17, 78, 68, 11, 59, 51, 39, 11, 55, 19, 33, 16, 64, 67, 85, 46, 60, 78, 11, 51, 57, 88, 60, 59, 97, 76, 65, 55, 72, 49, 79, 23, 49, 32, 76, 60, 16, 11, 70, 79, 36, 26, 97, 23, 57, 40, 33, 76, 36, 18, 66, 17, 67, 63, 52, 80, 33, 30, 84, 35, 100, 22, 66, 45, 55, 58, 39, 14, 92, 44, 42, 52, 48, 49, 68, 21, 92, 72, 99, 69, 65, 88, 49, 79, 15, 69, 81, 78, 67, 42, 29, 102, 67, 41, 85, 82, 28, 67, 63, 35, 13, 29, 33, 40, 14, 62, 83, 62, 48, 43, 67, 15, 19, 50, 38, 38, 31, 14, 27, 65, 35, 35, 33, 51, 15, 7, 8, 26, 36, 66, 72, 64, 69, 37, 87, 36, 77, 19, 49, 13, 78, 49, 62, 53, 56, 82, 87, 35, 52, 40, 26, 19, 39, 94, 41, 69, 86, 65, 65, 49, 57, 41, 70, 81, 31, 90, 20, 26, 66, 65, 70, 16, 45, 85, 88, 36, 83, 86, 24, 43, 67, 20, 14, 33, 31, 79, 65
              |95, 63, 65, 83, 57, 25, 19, 17, 57, 33, 86, 63, 63, 92, 4, 36, 86, 42, 77, 52, 74, 19, 86, 105, 59, 11, 38, 57, 36, 43, 47, 86, 24, 85, 47, 83, 19, 29, 93, 10, 75, 75, 28, 4, 66, 38, 47, 9, 28, 91, 85, 5, 59, 48, 69, 31, 64, 46, 55, 96, 72, 65, 80, 54, 58, 78, 59, 59, 51, 42, 54, 62, 74, 37, 72, 15, 55, 86, 41, 65, 82, 40, 31, 62, 27, 65, 26, 59, 75, 20, 3, 34, 32, 47, 16, 65, 77, 89, 58, 92, 6, 7, 87, 47, 35, 58, 48, 31, 89, 102, 27, 52, 76, 64, 45, 56, 64, 75, 69, 67, 57, 27, 82, 31, 89, 92, 58, 37, 60, 76, 61, 83, 41, 60, 72, 42, 79, 71, 71, 67, 51, 110, 60, 41, 19, 9, 39, 52, 39, 3, 93, 33, 86, 11, 31, 63, 47, 32, 7, 54, 73, 76, 50, 52, 57, 53, 35, 53, 28, 34, 44, 18, 39, 46, 34, 8, 92, 60, 29, 93, 98, 62, 27, 87, 60, 44, 54, 14, 65, 13, 15, 52, 36, 34, 94, 66, 106, 65, 6, 28
              |119, 40, 103, 90, 98, 35, 58, 74, 11, 75, 117, 44, 92, 63, 60, 76, 59, 72, 88, 13, 41, 44, 69, 82, 37, 50, 76, 99, 24, 17, 89, 59, 46, 96, 94, 98, 54, 86, 112, 53, 90, 101, 50, 60, 61, 61, 25, 64, 29, 59, 56, 52, 97, 18, 66, 87, 27, 73, 67, 82, 102, 70, 66, 86, 39, 100, 13, 79, 92, 41, 21, 102, 75, 93, 65, 42, 71, 95, 17, 14, 64, 92, 44, 74, 54, 79, 38, 18, 66, 76, 56, 90, 73, 19, 73, 80, 106, 63, 90, 115, 63, 52, 87, 31, 92, 88, 14, 83, 114, 74, 34, 15, 76, 49, 37, 17, 12, 39, 92, 104, 85, 44, 85, 31, 57, 68, 77, 42, 12, 73, 43, 74, 77, 15, 75, 32, 89, 59, 52, 45, 48, 82, 16, 81, 38, 57, 31, 97, 35, 60, 65, 55, 53, 66, 27, 88, 72, 63, 63, 99, 74, 89, 13, 50, 34, 64, 90, 10, 34, 85, 79, 61, 62, 13, 37, 58, 115, 19, 84, 68, 75, 90, 32, 106, 47, 63, 97, 70, 16, 70, 72, 34, 28, 29, 66, 36, 80, 20, 58, 68
              |97, 67, 66, 86, 58, 28, 22, 15, 59, 35, 88, 67, 65, 95, 1, 38, 89, 45, 80, 55, 78, 23, 90, 108, 63, 14, 40, 59, 39, 45, 49, 89, 28, 88, 47, 86, 23, 27, 95, 14, 78, 77, 32, 1, 69, 41, 50, 10, 30, 94, 89, 8, 61, 51, 72, 29, 67, 48, 59, 100, 74, 68, 84, 57, 62, 81, 61, 62, 52, 45, 57, 64, 77, 36, 76, 17, 58, 89, 43, 68, 86, 40, 35, 65, 31, 68, 30, 60, 78, 17, 6, 32, 34, 48, 14, 68, 79, 93, 60, 95, 6, 11, 91, 51, 33, 60, 51, 31, 91, 106, 28, 54, 79, 67, 49, 59, 67, 78, 72, 69, 59, 31, 85, 32, 93, 95, 61, 40, 63, 79, 64, 87, 43, 63, 76, 46, 82, 75, 75, 70, 55, 113, 62, 42, 21, 12, 43, 52, 42, 2, 97, 36, 89, 11, 34, 65, 50, 35, 4, 55, 76, 79, 53, 56, 61, 56, 35, 56, 29, 34, 46, 21, 42, 48, 38, 11, 95, 63, 28, 97, 101, 64, 29, 89, 64, 47, 55, 11, 68, 11, 13, 55, 39, 35, 98, 69, 109, 68, 4, 30
              |94, 51, 68, 77, 61, 11, 18, 30, 46, 36, 87, 52, 62, 80, 17, 38, 74, 41, 72, 38, 62, 9, 76, 94, 47, 7, 40, 62, 22, 32, 51, 74, 15, 80, 54, 80, 16, 42, 91, 10, 71, 74, 21, 17, 56, 34, 33, 20, 17, 78, 73, 9, 62, 35, 60, 43, 51, 44, 49, 86, 73, 58, 70, 55, 46, 76, 48, 56, 55, 30, 40, 66, 66, 49, 63, 7, 50, 81, 30, 52, 72, 49, 21, 56, 22, 60, 14, 48, 65, 33, 12, 46, 35, 36, 30, 60, 77, 78, 59, 91, 19, 8, 80, 35, 48, 58, 35, 40, 88, 91, 18, 41, 68, 52, 34, 42, 51, 62, 67, 70, 56, 17, 75, 22, 77, 81, 54, 26, 46, 67, 49, 74, 42, 47, 65, 30, 74, 61, 60, 55, 41, 98, 50, 44, 9, 13, 26, 57, 27, 17, 82, 27, 73, 22, 18, 61, 44, 30, 21, 60, 65, 71, 37, 42, 45, 46, 46, 40, 21, 43, 45, 20, 34, 34, 22, 14, 91, 47, 40, 81, 87, 61, 18, 85, 49, 39, 59, 27, 51, 26, 28, 39, 22, 25, 82, 53, 94, 51, 17, 30
              |95, 46, 70, 76, 64, 6, 21, 35, 41, 39, 89, 47, 64, 75, 22, 41, 69, 42, 71, 33, 57, 9, 72, 90, 42, 11, 42, 65, 17, 28, 54, 69, 14, 80, 57, 79, 18, 47, 91, 14, 71, 75, 21, 23, 53, 34, 28, 25, 13, 74, 69, 14, 65, 30, 57, 49, 46, 45, 48, 83, 74, 56, 66, 56, 42, 76, 44, 56, 58, 27, 35, 68, 64, 54, 60, 8, 49, 80, 25, 46, 68, 54, 19, 55, 22, 59, 10, 44, 62, 39, 18, 51, 38, 33, 35, 60, 78, 73, 60, 92, 24, 13, 78, 30, 53, 59, 29, 45, 89, 86, 17, 37, 66, 48, 30, 37, 46, 57, 68, 72, 57, 15, 73, 20, 72, 76, 54, 23, 41, 65, 45, 71, 44, 41, 63, 25, 73, 57, 56, 51, 38, 94, 46, 47, 7, 18, 21, 61, 22, 22, 77, 26, 68, 27, 13, 62, 45, 31, 26, 63, 63, 71, 32, 39, 40, 45, 51, 34, 19, 47, 47, 23, 34, 30, 18, 19, 92, 41, 45, 77, 83, 62, 16, 85, 45, 38, 62, 33, 46, 31, 33, 35, 17, 23, 78, 48, 90, 46, 22, 32
              |109, 29, 94, 79, 90, 31, 52, 71, 22, 68, 107, 33, 82, 53, 58, 68, 49, 64, 77, 3, 31, 39, 58, 72, 26, 46, 69, 91, 19, 22, 81, 49, 39, 85, 88, 87, 48, 83, 102, 49, 79, 91, 43, 58, 50, 53, 15, 61, 29, 50, 46, 50, 89, 9, 54, 84, 17, 64, 57, 72, 93, 60, 55, 77, 28, 89, 24, 69, 85, 31, 10, 93, 64, 89, 54, 41, 61, 84, 21, 10, 53, 87, 36, 63, 47, 69, 32, 29, 55, 74, 53, 87, 67, 26, 71, 69, 97, 53, 81, 105, 60, 49, 76, 21, 89, 79, 6, 78, 104, 65, 35, 24, 65, 38, 27, 6, 10, 30, 81, 95, 75, 37, 74, 33, 48, 58, 67, 33, 5, 62, 32, 63, 69, 6, 64, 22, 78, 48, 41, 34, 37, 73, 28, 74, 37, 53, 22, 90, 26, 58, 55, 47, 44, 63, 23, 78, 63, 56, 61, 91, 63, 78, 4, 40, 23, 54, 85, 2, 36, 80, 71, 55, 53, 19, 29, 54, 105, 9, 80, 58, 65, 81, 33, 95, 36, 53, 89, 68, 10, 67, 69, 23, 21, 32, 56, 25, 70, 12, 57, 61
              |80, 56, 52, 69, 45, 24, 5, 20, 62, 20, 73, 55, 48, 83, 16, 22, 77, 28, 63, 51, 68, 15, 76, 95, 53, 10, 24, 45, 36, 49, 35, 77, 17, 71, 37, 69, 8, 31, 78, 7, 61, 61, 18, 17, 54, 25, 43, 10, 34, 83, 77, 13, 46, 47, 57, 31, 60, 31, 42, 85, 58, 52, 69, 40, 51, 64, 65, 45, 38, 34, 51, 50, 61, 35, 61, 23, 41, 72, 46, 64, 73, 33, 23, 49, 15, 51, 22, 65, 64, 26, 11, 34, 18, 53, 22, 51, 63, 81, 44, 78, 13, 11, 74, 42, 36, 43, 48, 24, 74, 93, 35, 58, 63, 54, 38, 54, 64, 69, 55, 54, 43, 19, 68, 39, 82, 82, 44, 29, 59, 63, 52, 72, 27, 59, 59, 37, 65, 61, 62, 59, 41, 100, 66, 28, 26, 5, 35, 40, 33, 15, 85, 20, 78, 11, 32, 49, 33, 18, 18, 43, 60, 62, 50, 42, 51, 40, 31, 53, 37, 26, 30, 4, 25, 51, 28, 6, 78, 58, 26, 84, 88, 48, 35, 73, 51, 31, 42, 23, 64, 17, 19, 45, 33, 42, 86, 60, 96, 63, 20, 14
              |85, 61, 55, 76, 48, 26, 12, 14, 63, 24, 77, 61, 53, 89, 10, 26, 83, 33, 69, 54, 73, 18, 82, 101, 58, 11, 28, 48, 38, 49, 38, 83, 21, 77, 38, 75, 14, 26, 84, 8, 67, 66, 24, 11, 60, 31, 47, 4, 34, 88, 83, 10, 50, 50, 63, 27, 64, 37, 49, 91, 63, 59, 75, 45, 56, 69, 65, 51, 41, 39, 55, 53, 67, 32, 67, 22, 48, 78, 47, 67, 79, 33, 28, 55, 21, 57, 26, 65, 70, 20, 7, 30, 22, 53, 16, 57, 67, 86, 49, 83, 7, 9, 81, 47, 32, 48, 51, 23, 79, 99, 34, 58, 69, 60, 43, 58, 67, 74, 61, 58, 48, 24, 75, 38, 87, 88, 50, 34, 62, 70, 58, 78, 32, 62, 66, 42, 71, 67, 68, 64, 47, 106, 67, 31, 25, 4, 39, 43, 38, 9, 91, 26, 84, 6, 34, 54, 39, 24, 12, 45, 66, 68, 53, 48, 56, 46, 29, 56, 36, 26, 35, 10, 32, 51, 33, 3, 83, 61, 23, 89, 94, 53, 34, 78, 57, 37, 45, 17, 67, 11, 13, 50, 37, 41, 91, 65, 102, 66, 15, 19
              |100, 69, 69, 89, 61, 30, 25, 16, 59, 38, 91, 69, 68, 98, 4, 40, 92, 48, 83, 56, 80, 25, 93, 111, 65, 17, 42, 61, 40, 45, 51, 92, 30, 91, 50, 89, 25, 27, 98, 17, 81, 80, 35, 3, 72, 44, 52, 13, 31, 97, 91, 11, 64, 53, 75, 30, 69, 51, 62, 102, 77, 71, 86, 59, 64, 84, 61, 65, 54, 48, 59, 66, 80, 36, 79, 18, 61, 92, 43, 69, 89, 42, 38, 68, 34, 71, 32, 60, 81, 17, 9, 33, 36, 48, 14, 71, 81, 95, 63, 98, 8, 13, 94, 53, 33, 63, 52, 33, 94, 108, 28, 54, 82, 70, 51, 61, 68, 80, 75, 72, 62, 33, 88, 32, 95, 98, 64, 43, 64, 82, 67, 90, 46, 64, 79, 48, 85, 77, 77, 73, 57, 116, 62, 45, 22, 15, 45, 55, 45, 5, 99, 39, 91, 14, 36, 68, 53, 38, 4, 58, 79, 82, 55, 59, 63, 59, 36, 57, 29, 36, 49, 24, 45, 49, 40, 14, 98, 65, 30, 99, 104, 67, 29, 92, 66, 50, 57, 10, 69, 13, 14, 57, 41, 35, 100, 71, 112, 69, 2, 33
              |89, 51, 63, 74, 56, 14, 13, 27, 50, 31, 83, 51, 58, 80, 16, 33, 74, 36, 68, 41, 62, 7, 75, 93, 47, 2, 35, 57, 25, 37, 46, 74, 13, 77, 49, 76, 11, 39, 86, 5, 67, 70, 18, 16, 54, 30, 35, 16, 22, 79, 73, 7, 57, 37, 58, 40, 52, 39, 46, 85, 68, 55, 69, 50, 46, 72, 53, 52, 50, 30, 42, 61, 63, 45, 61, 11, 46, 77, 34, 55, 71, 45, 20, 53, 18, 57, 14, 53, 64, 31, 10, 43, 30, 41, 27, 57, 72, 77, 54, 87, 16, 5, 77, 35, 45, 53, 38, 36, 84, 90, 23, 46, 65, 52, 33, 45, 54, 63, 63, 65, 51, 15, 72, 27, 77, 80, 50, 25, 49, 65, 49, 72, 37, 49, 62, 30, 70, 60, 59, 55, 39, 98, 54, 39, 14, 9, 27, 52, 27, 15, 81, 23, 74, 18, 21, 57, 40, 25, 19, 55, 62, 68, 40, 41, 45, 43, 42, 43, 25, 38, 40, 15, 31, 39, 22, 10, 87, 49, 36, 81, 86, 57, 23, 80, 48, 35, 54, 26, 54, 23, 25, 40, 24, 30, 82, 54, 94, 54, 17, 25
              |44, 66, 15, 46, 11, 56, 35, 47, 94, 19, 34, 63, 13, 85, 52, 16, 79, 16, 39, 77, 79, 48, 72, 88, 65, 48, 14, 13, 65, 82, 9, 79, 44, 44, 20, 40, 38, 48, 44, 45, 35, 25, 38, 53, 50, 27, 65, 44, 69, 87, 81, 51, 9, 71, 50, 47, 78, 16, 32, 74, 21, 40, 64, 7, 62, 31, 97, 23, 9, 49, 72, 14, 47, 44, 55, 60, 28, 47, 80, 88, 71, 30, 44, 33, 35, 31, 51, 99, 58, 52, 49, 46, 20, 88, 51, 30, 25, 81, 8, 42, 48, 49, 57, 61, 50, 9, 75, 30, 38, 92, 72, 92, 49, 59, 54, 77, 89, 81, 24, 16, 13, 44, 49, 76, 86, 80, 24, 46, 84, 52, 61, 62, 12, 82, 45, 58, 41, 59, 65, 66, 48, 96, 99, 11, 62, 44, 58, 16, 54, 51, 86, 33, 85, 43, 63, 17, 19, 25, 53, 16, 46, 37, 76, 47, 65, 33, 37, 79, 74, 28, 9, 34, 27, 83, 51, 44, 42, 79, 38, 82, 83, 14, 71, 39, 57, 28, 13, 54, 87, 47, 48, 61, 60, 79, 86, 73, 92, 84, 57, 24
              |105, 59, 77, 89, 70, 19, 28, 31, 43, 45, 98, 60, 73, 88, 17, 48, 82, 51, 83, 42, 69, 20, 85, 103, 55, 16, 49, 71, 27, 29, 60, 82, 26, 92, 61, 91, 26, 43, 102, 19, 82, 85, 32, 17, 67, 45, 40, 24, 15, 86, 81, 13, 72, 40, 70, 45, 57, 55, 60, 97, 83, 69, 80, 65, 55, 87, 45, 67, 64, 40, 46, 75, 77, 52, 73, 5, 61, 92, 27, 54, 81, 55, 32, 68, 33, 71, 24, 44, 76, 33, 16, 48, 44, 32, 30, 72, 87, 86, 69, 102, 21, 15, 91, 43, 49, 68, 38, 46, 99, 99, 12, 38, 79, 62, 43, 47, 53, 68, 78, 80, 67, 28, 86, 16, 85, 90, 65, 36, 49, 78, 58, 84, 52, 50, 76, 38, 85, 71, 69, 64, 51, 107, 46, 53, 8, 21, 34, 65, 35, 17, 90, 38, 81, 26, 23, 72, 55, 41, 20, 68, 76, 83, 40, 53, 52, 57, 50, 42, 13, 49, 55, 29, 46, 33, 31, 21, 102, 51, 44, 90, 96, 72, 13, 96, 58, 50, 67, 26, 54, 27, 29, 47, 29, 19, 91, 60, 103, 56, 14, 39
              |16, 69, 38, 20, 44, 81, 68, 85, 114, 56, 24, 65, 26, 74, 88, 53, 70, 45, 18, 92, 79, 75, 58, 68, 71, 79, 51, 46, 86, 105, 49, 70, 70, 13, 59, 8, 69, 88, 8, 77, 15, 16, 63, 89, 47, 50, 79, 80, 95, 78, 74, 84, 38, 86, 43, 86, 85, 41, 38, 52, 23, 35, 53, 34, 68, 9, 116, 28, 47, 65, 84, 41, 34, 84, 47, 90, 35, 16, 102, 99, 60, 70, 66, 31, 62, 26, 76, 120, 48, 91, 84, 86, 57, 111, 89, 25, 21, 70, 32, 12, 85, 81, 32, 74, 90, 31, 91, 70, 15, 76, 100, 113, 34, 60, 67, 89, 101, 82, 17, 34, 30, 69, 27, 103, 78, 66, 30, 65, 96, 38, 65, 46, 47, 94, 33, 73, 18, 54, 62, 67, 57, 77, 119, 50, 91, 77, 76, 53, 71, 87, 74, 57, 78, 80, 86, 24, 40, 55, 90, 51, 34, 17, 92, 54, 73, 41, 77, 95, 102, 68, 44, 68, 49, 104, 72, 78, 12, 89, 78, 68, 66, 26, 99, 2, 60, 46, 49, 92, 97, 85, 86, 71, 80, 105, 74, 77, 73, 93, 92, 59
              |79, 28, 86, 43, 86, 67, 73, 98, 78, 77, 85, 26, 69, 11, 91, 75, 9, 65, 46, 56, 27, 69, 5, 17, 32, 77, 74, 89, 62, 77, 83, 9, 64, 50, 94, 55, 71, 107, 70, 78, 51, 70, 61, 92, 26, 57, 49, 88, 76, 16, 13, 83, 82, 53, 26, 107, 40, 62, 44, 17, 76, 36, 11, 69, 32, 64, 80, 53, 85, 47, 47, 87, 31, 109, 21, 81, 48, 47, 75, 55, 6, 100, 57, 43, 63, 47, 63, 85, 18, 104, 85, 109, 77, 82, 100, 48, 77, 8, 71, 75, 90, 81, 32, 44, 112, 69, 58, 94, 77, 16, 83, 80, 30, 25, 43, 50, 57, 29, 60, 84, 64, 61, 36, 84, 17, 4, 52, 51, 55, 26, 28, 17, 71, 52, 32, 48, 45, 18, 17, 23, 37, 22, 83, 78, 79, 81, 52, 92, 51, 90, 11, 59, 18, 90, 65, 63, 58, 65, 95, 91, 31, 48, 57, 36, 35, 44, 103, 58, 85, 94, 71, 76, 57, 74, 55, 82, 75, 48, 100, 6, 10, 67, 81, 65, 28, 52, 89, 100, 53, 95, 97, 39, 58, 84, 11, 31, 18, 48, 93, 74
              |91, 63, 60, 80, 53, 26, 16, 14, 60, 29, 82, 63, 59, 91, 5, 32, 85, 38, 74, 53, 75, 19, 85, 104, 59, 11, 34, 53, 38, 46, 43, 85, 23, 82, 43, 80, 17, 26, 89, 9, 72, 71, 27, 6, 64, 35, 48, 5, 31, 91, 85, 7, 55, 50, 67, 28, 65, 42, 53, 94, 68, 63, 79, 51, 58, 75, 62, 56, 46, 41, 55, 58, 71, 34, 71, 18, 52, 83, 44, 67, 82, 36, 31, 60, 25, 62, 27, 62, 73, 18, 3, 31, 28, 50, 15, 62, 73, 89, 54, 89, 4, 8, 85, 48, 33, 54, 50, 27, 85, 102, 30, 56, 73, 63, 45, 57, 66, 75, 66, 63, 53, 26, 79, 34, 89, 91, 55, 36, 62, 74, 60, 82, 37, 62, 70, 43, 76, 70, 71, 67, 50, 109, 64, 37, 22, 6, 40, 47, 39, 4, 93, 30, 86, 7, 33, 59, 44, 29, 8, 50, 70, 73, 52, 51, 57, 50, 32, 55, 32, 30, 40, 15, 36, 49, 34, 5, 89, 61, 25, 92, 97, 58, 31, 83, 59, 42, 50, 13, 66, 10, 13, 52, 37, 38, 94, 66, 105, 66, 9, 24
              |91, 16, 78, 62, 74, 25, 41, 63, 38, 54, 90, 19, 65, 45, 53, 54, 40, 48, 60, 16, 25, 31, 45, 62, 12, 39, 54, 76, 18, 33, 66, 40, 28, 68, 74, 69, 37, 75, 84, 41, 62, 74, 29, 53, 33, 37, 4, 53, 32, 43, 38, 44, 73, 10, 38, 76, 16, 48, 39, 58, 76, 42, 41, 60, 13, 72, 41, 51, 70, 14, 9, 77, 47, 80, 38, 39, 43, 67, 31, 25, 40, 75, 22, 45, 33, 51, 23, 45, 39, 68, 47, 78, 53, 39, 64, 52, 79, 44, 64, 87, 53, 42, 59, 3, 81, 62, 16, 67, 86, 56, 39, 39, 48, 22, 10, 13, 25, 25, 64, 78, 58, 25, 57, 39, 41, 48, 49, 18, 21, 46, 17, 48, 53, 18, 47, 7, 61, 32, 28, 21, 20, 64, 44, 59, 36, 45, 10, 75, 11, 52, 47, 32, 37, 55, 21, 61, 46, 41, 56, 76, 46, 60, 16, 22, 9, 37, 75, 18, 41, 68, 55, 44, 37, 31, 16, 46, 87, 15, 70, 48, 54, 64, 37, 78, 20, 36, 75, 63, 23, 60, 62, 6, 14, 39, 48, 17, 61, 20, 53, 48
              |127, 52, 109, 100, 103, 38, 61, 73, 1, 79, 124, 56, 99, 75, 59, 80, 71, 78, 98, 23, 53, 48, 80, 94, 48, 51, 81, 104, 29, 13, 93, 71, 50, 106, 98, 107, 57, 85, 121, 55, 99, 109, 56, 59, 72, 68, 35, 64, 28, 71, 68, 52, 103, 28, 76, 87, 39, 80, 76, 94, 109, 80, 78, 92, 50, 108, 3, 87, 97, 49, 33, 107, 85, 93, 76, 41, 79, 105, 15, 25, 75, 94, 50, 83, 59, 88, 43, 6, 77, 75, 56, 90, 77, 11, 72, 89, 114, 75, 97, 124, 62, 53, 98, 41, 91, 95, 23, 85, 122, 86, 30, 4, 87, 60, 47, 29, 24, 51, 100, 110, 92, 49, 95, 26, 69, 80, 85, 50, 24, 84, 54, 85, 82, 27, 85, 41, 99, 70, 64, 57, 58, 94, 6, 86, 37, 58, 38, 101, 42, 59, 77, 61, 65, 66, 31, 96, 79, 69, 62, 103, 85, 98, 23, 60, 46, 73, 91, 21, 29, 88, 84, 64, 68, 11, 43, 59, 124, 31, 85, 80, 87, 97, 29, 115, 58, 70, 102, 68, 27, 69, 71, 45, 34, 24, 78, 48, 92, 32, 56, 72
              |113, 42, 93, 87, 88, 23, 46, 60, 16, 64, 109, 45, 84, 68, 47, 65, 64, 63, 84, 15, 47, 33, 71, 86, 38, 37, 66, 89, 13, 7, 78, 64, 35, 92, 83, 93, 42, 72, 107, 40, 85, 94, 40, 47, 59, 53, 23, 51, 16, 65, 61, 39, 87, 17, 64, 74, 33, 65, 62, 84, 94, 67, 67, 77, 39, 94, 18, 72, 82, 35, 23, 92, 73, 80, 64, 28, 65, 92, 5, 25, 66, 80, 35, 69, 44, 74, 27, 21, 66, 63, 43, 77, 62, 12, 60, 74, 98, 68, 81, 109, 49, 39, 85, 28, 78, 80, 12, 71, 108, 80, 20, 13, 74, 49, 33, 21, 23, 45, 85, 95, 77, 34, 82, 18, 63, 72, 70, 35, 21, 72, 43, 74, 67, 22, 72, 27, 85, 59, 54, 47, 44, 88, 21, 71, 24, 44, 24, 86, 28, 46, 70, 46, 59, 53, 16, 81, 64, 53, 50, 88, 72, 84, 14, 47, 35, 59, 77, 14, 21, 73, 69, 49, 53, 5, 28, 45, 109, 25, 71, 73, 79, 82, 18, 101, 46, 55, 86, 56, 25, 56, 58, 33, 19, 16, 71, 39, 85, 28, 44, 57
              |102, 33, 84, 76, 78, 16, 38, 56, 26, 55, 99, 36, 73, 61, 43, 56, 56, 53, 73, 12, 40, 25, 62, 78, 29, 31, 57, 80, 4, 17, 69, 56, 26, 81, 75, 82, 34, 68, 96, 34, 74, 83, 31, 43, 49, 42, 13, 46, 16, 59, 54, 35, 78, 10, 53, 69, 27, 55, 51, 75, 84, 56, 58, 67, 30, 83, 28, 62, 73, 24, 17, 82, 62, 75, 54, 26, 54, 81, 15, 25, 57, 73, 25, 58, 35, 63, 18, 31, 56, 59, 39, 72, 54, 23, 56, 64, 88, 60, 71, 98, 45, 34, 75, 18, 74, 70, 9, 64, 97, 73, 23, 24, 64, 39, 22, 17, 25, 39, 74, 85, 66, 25, 72, 22, 57, 64, 59, 24, 20, 61, 34, 64, 57, 21, 61, 16, 74, 49, 45, 38, 34, 81, 31, 62, 22, 38, 13, 77, 17, 43, 63, 36, 53, 48, 8, 70, 53, 44, 47, 79, 61, 73, 11, 36, 26, 48, 71, 13, 24, 66, 59, 41, 43, 16, 18, 39, 98, 21, 65, 65, 71, 72, 21, 90, 36, 45, 77, 53, 25, 52, 54, 23, 9, 22, 64, 32, 78, 26, 42, 49
              |71, 34, 52, 50, 48, 22, 18, 43, 58, 27, 67, 33, 41, 60, 38, 27, 54, 22, 45, 40, 47, 18, 52, 71, 32, 25, 27, 49, 29, 47, 39, 54, 12, 54, 47, 53, 16, 53, 66, 24, 45, 52, 6, 39, 31, 10, 28, 34, 36, 60, 54, 31, 46, 34, 34, 53, 42, 22, 22, 61, 52, 31, 46, 35, 29, 52, 61, 31, 43, 13, 35, 51, 39, 56, 38, 33, 24, 54, 45, 51, 49, 49, 8, 30, 8, 34, 17, 63, 40, 49, 32, 55, 26, 53, 46, 34, 56, 57, 39, 67, 36, 28, 53, 24, 58, 37, 38, 42, 65, 70, 42, 56, 41, 31, 18, 40, 52, 48, 43, 53, 34, 10, 48, 44, 59, 59, 29, 9, 47, 41, 30, 48, 26, 45, 38, 20, 47, 37, 39, 36, 18, 77, 63, 32, 33, 27, 21, 48, 17, 37, 62, 5, 56, 35, 28, 38, 21, 14, 41, 49, 38, 45, 39, 18, 31, 19, 51, 42, 44, 43, 28, 21, 11, 47, 14, 28, 67, 42, 46, 60, 64, 40, 40, 60, 28, 13, 48, 46, 50, 41, 43, 25, 24, 47, 62, 40, 72, 47, 41, 22
              |73, 45, 49, 58, 43, 22, 7, 32, 60, 19, 67, 44, 42, 72, 28, 20, 65, 20, 52, 45, 58, 13, 64, 82, 42, 16, 21, 44, 32, 48, 34, 65, 10, 60, 39, 59, 6, 42, 70, 15, 51, 53, 6, 29, 42, 13, 35, 23, 35, 71, 66, 22, 43, 40, 44, 42, 51, 23, 30, 72, 52, 40, 57, 34, 40, 55, 63, 35, 37, 23, 43, 47, 49, 45, 48, 28, 30, 61, 45, 58, 60, 40, 13, 37, 3, 40, 17, 65, 51, 38, 22, 44, 18, 54, 35, 40, 56, 69, 38, 70, 26, 19, 62, 33, 47, 37, 43, 31, 67, 81, 39, 57, 51, 43, 28, 47, 58, 59, 46, 50, 35, 11, 57, 42, 70, 70, 34, 18, 53, 51, 41, 59, 22, 52, 47, 28, 54, 48, 50, 47, 29, 88, 65, 26, 29, 16, 27, 41, 24, 27, 73, 8, 67, 24, 29, 40, 23, 9, 30, 43, 48, 51, 45, 30, 41, 27, 40, 48, 41, 33, 25, 10, 14, 49, 20, 18, 70, 50, 35, 71, 75, 40, 38, 64, 39, 19, 42, 35, 57, 30, 32, 35, 28, 45, 74, 50, 84, 55, 31, 13
              |64, 43, 78, 29, 80, 77, 77, 102, 94, 77, 72, 40, 61, 30, 97, 75, 29, 63, 34, 72, 45, 77, 16, 20, 47, 84, 73, 82, 75, 92, 79, 29, 71, 35, 90, 40, 76, 110, 54, 84, 40, 59, 66, 98, 29, 59, 62, 93, 88, 35, 33, 90, 75, 68, 26, 109, 57, 59, 42, 4, 65, 32, 17, 64, 45, 52, 97, 48, 80, 56, 63, 79, 24, 109, 23, 91, 45, 32, 89, 73, 21, 98, 64, 38, 68, 40, 72, 101, 20, 108, 92, 110, 77, 97, 105, 41, 66, 27, 64, 60, 96, 88, 16, 57, 114, 63, 73, 94, 63, 29, 95, 96, 22, 36, 54, 66, 75, 48, 51, 75, 58, 68, 22, 96, 36, 22, 47, 59, 72, 20, 41, 11, 69, 69, 25, 60, 33, 26, 31, 38, 45, 29, 100, 76, 89, 87, 64, 87, 61, 97, 29, 63, 38, 94, 77, 55, 56, 67, 100, 86, 25, 36, 73, 43, 50, 44, 103, 74, 97, 94, 68, 80, 58, 89, 65, 88, 60, 65, 101, 23, 19, 59, 93, 50, 39, 53, 84, 106, 71, 100, 102, 52, 70, 97, 29, 48, 25, 65, 100, 76
              |89, 20, 91, 53, 90, 60, 70, 95, 66, 77, 93, 20, 74, 9, 87, 76, 4, 66, 55, 45, 14, 64, 17, 27, 24, 72, 75, 92, 54, 67, 85, 4, 59, 60, 95, 64, 67, 105, 79, 74, 59, 77, 57, 87, 29, 57, 40, 85, 68, 8, 2, 78, 86, 43, 31, 106, 28, 64, 47, 30, 82, 41, 20, 73, 25, 72, 68, 58, 87, 42, 37, 91, 39, 108, 26, 74, 52, 57, 65, 43, 13, 100, 52, 48, 61, 53, 57, 73, 25, 100, 81, 107, 77, 71, 97, 54, 84, 8, 76, 84, 86, 76, 43, 37, 111, 74, 48, 93, 86, 20, 75, 69, 38, 21, 38, 39, 45, 16, 67, 89, 69, 57, 45, 75, 7, 13, 56, 47, 43, 34, 23, 28, 73, 40, 40, 41, 54, 20, 14, 16, 35, 28, 71, 79, 72, 77, 45, 94, 44, 86, 11, 57, 6, 86, 57, 68, 60, 64, 90, 94, 39, 56, 46, 34, 27, 47, 102, 47, 77, 94, 73, 73, 57, 63, 49, 78, 84, 36, 98, 13, 20, 72, 73, 74, 24, 53, 92, 96, 41, 92, 94, 32, 51, 75, 12, 20, 25, 35, 88, 74
              |37, 50, 34, 21, 36, 57, 45, 65, 91, 37, 36, 46, 17, 63, 66, 34, 57, 23, 14, 70, 62, 52, 48, 63, 51, 56, 32, 38, 63, 82, 35, 57, 46, 21, 46, 19, 46, 70, 31, 55, 11, 20, 40, 67, 29, 27, 57, 59, 71, 65, 60, 62, 30, 64, 27, 69, 64, 19, 15, 48, 24, 17, 41, 19, 47, 18, 93, 5, 35, 42, 62, 35, 22, 68, 32, 67, 11, 23, 79, 78, 48, 55, 43, 10, 38, 5, 52, 96, 34, 71, 61, 69, 37, 87, 69, 4, 27, 59, 20, 33, 63, 59, 30, 51, 73, 18, 69, 53, 32, 68, 77, 89, 23, 41, 45, 67, 79, 64, 10, 32, 13, 45, 23, 79, 65, 57, 6, 41, 75, 27, 45, 37, 28, 72, 20, 50, 16, 38, 45, 49, 35, 71, 96, 33, 67, 55, 52, 43, 48, 65, 63, 34, 64, 59, 62, 10, 17, 32, 68, 41, 21, 12, 69, 33, 52, 18, 61, 72, 79, 52, 25, 46, 26, 81, 48, 56, 33, 68, 61, 58, 59, 15, 75, 25, 40, 22, 39, 71, 76, 64, 66, 49, 57, 81, 63, 58, 67, 72, 70, 38
              |80, 18, 67, 53, 64, 24, 34, 58, 48, 45, 79, 18, 54, 46, 49, 44, 40, 37, 50, 26, 30, 26, 42, 60, 15, 35, 44, 65, 23, 41, 56, 40, 22, 58, 64, 59, 30, 69, 74, 36, 51, 63, 21, 50, 25, 26, 13, 48, 35, 45, 40, 41, 62, 21, 30, 69, 25, 37, 28, 54, 64, 32, 37, 49, 13, 61, 51, 40, 59, 4, 20, 66, 38, 72, 31, 38, 32, 57, 38, 36, 38, 66, 15, 35, 25, 40, 20, 54, 33, 63, 43, 71, 44, 47, 59, 41, 68, 44, 53, 76, 49, 38, 51, 8, 74, 51, 25, 59, 75, 57, 42, 48, 40, 18, 1, 25, 37, 31, 53, 67, 47, 19, 48, 43, 44, 47, 38, 9, 32, 38, 15, 42, 43, 30, 38, 8, 51, 27, 26, 21, 10, 64, 54, 49, 36, 40, 11, 65, 8, 48, 48, 22, 40, 49, 24, 50, 35, 31, 52, 66, 37, 50, 26, 12, 14, 26, 67, 29, 44, 60, 44, 37, 26, 39, 12, 41, 76, 26, 63, 48, 53, 52, 40, 67, 15, 25, 64, 59, 34, 55, 57, 8, 17, 44, 49, 22, 60, 31, 50, 39
              |103, 22, 91, 73, 87, 32, 51, 72, 29, 66, 103, 26, 78, 47, 60, 66, 42, 61, 71, 7, 25, 40, 51, 65, 19, 47, 66, 89, 21, 29, 79, 42, 38, 79, 86, 81, 48, 84, 96, 50, 74, 87, 41, 60, 44, 49, 12, 62, 33, 43, 39, 51, 85, 8, 48, 85, 10, 61, 52, 65, 89, 54, 48, 73, 22, 84, 31, 64, 82, 27, 4, 90, 58, 90, 47, 44, 56, 78, 28, 12, 46, 86, 34, 58, 45, 63, 32, 36, 48, 76, 55, 88, 65, 33, 72, 64, 92, 46, 77, 100, 61, 50, 69, 16, 90, 75, 10, 78, 99, 58, 40, 31, 59, 31, 23, 1, 13, 23, 77, 91, 71, 36, 67, 39, 41, 51, 62, 30, 8, 56, 26, 56, 66, 5, 58, 19, 72, 41, 34, 27, 32, 66, 34, 72, 40, 54, 20, 88, 23, 59, 49, 44, 37, 64, 25, 74, 59, 53, 64, 89, 57, 72, 9, 34, 17, 49, 86, 9, 41, 79, 68, 55, 50, 25, 27, 55, 100, 4, 80, 51, 58, 76, 38, 90, 29, 49, 87, 70, 10, 68, 70, 18, 21, 38, 49, 18, 63, 9, 59, 60
              |96, 69, 64, 86, 57, 31, 22, 12, 62, 34, 87, 69, 64, 97, 2, 37, 91, 44, 80, 57, 80, 25, 91, 110, 65, 16, 39, 57, 42, 48, 47, 91, 29, 88, 45, 86, 23, 24, 95, 15, 78, 76, 33, 2, 70, 42, 52, 9, 33, 96, 91, 11, 59, 54, 73, 26, 70, 48, 59, 101, 73, 69, 85, 56, 64, 80, 64, 62, 50, 47, 60, 62, 78, 33, 77, 20, 58, 89, 46, 71, 88, 37, 37, 66, 32, 68, 32, 63, 80, 14, 8, 29, 33, 51, 11, 68, 77, 95, 59, 94, 4, 13, 91, 53, 30, 59, 54, 29, 90, 108, 31, 57, 80, 69, 51, 62, 70, 80, 72, 68, 59, 32, 86, 35, 95, 97, 61, 42, 66, 80, 66, 88, 42, 66, 76, 48, 82, 76, 77, 72, 56, 115, 65, 41, 24, 13, 45, 50, 45, 3, 99, 37, 91, 9, 37, 65, 50, 35, 1, 53, 77, 79, 56, 57, 63, 57, 32, 59, 32, 32, 45, 21, 43, 51, 40, 11, 94, 66, 25, 98, 103, 64, 32, 89, 65, 48, 53, 8, 70, 9, 10, 57, 41, 38, 100, 72, 111, 71, 6, 29
              |49, 74, 14, 56, 6, 59, 37, 43, 98, 19, 38, 72, 22, 95, 51, 18, 89, 23, 49, 83, 88, 51, 81, 98, 73, 49, 17, 6, 70, 86, 4, 89, 48, 54, 11, 49, 41, 42, 51, 46, 44, 32, 43, 52, 60, 34, 71, 42, 72, 96, 91, 52, 10, 77, 60, 40, 85, 25, 42, 84, 26, 50, 74, 17, 70, 39, 101, 33, 1, 56, 79, 11, 57, 36, 65, 62, 37, 56, 83, 95, 80, 22, 50, 43, 39, 41, 56, 102, 68, 48, 49, 39, 21, 91, 47, 40, 30, 91, 17, 48, 47, 50, 66, 67, 43, 18, 80, 25, 43, 102, 74, 95, 59, 68, 61, 83, 95, 89, 33, 17, 23, 49, 59, 78, 96, 90, 34, 53, 90, 62, 69, 72, 17, 88, 55, 64, 51, 69, 74, 75, 56, 106, 103, 12, 64, 44, 64, 6, 60, 50, 95, 39, 94, 41, 67, 27, 28, 30, 51, 6, 56, 47, 82, 55, 73, 42, 30, 85, 76, 22, 16, 36, 34, 87, 57, 44, 48, 86, 32, 92, 93, 23, 74, 47, 66, 36, 4, 51, 93, 44, 44, 68, 65, 81, 96, 81, 102, 91, 56, 26
              |105, 65, 75, 91, 68, 25, 28, 25, 50, 44, 97, 66, 73, 94, 12, 46, 88, 52, 85, 49, 75, 24, 91, 109, 61, 17, 48, 68, 34, 36, 58, 88, 29, 94, 57, 92, 27, 36, 102, 18, 84, 85, 35, 11, 71, 46, 47, 20, 23, 93, 87, 11, 70, 47, 75, 39, 64, 55, 63, 101, 82, 72, 85, 64, 61, 88, 52, 68, 61, 45, 53, 73, 80, 46, 78, 11, 63, 94, 35, 62, 86, 50, 36, 70, 35, 73, 29, 51, 80, 26, 13, 42, 42, 39, 23, 73, 87, 92, 68, 102, 16, 14, 94, 49, 42, 68, 45, 42, 99, 105, 19, 45, 82, 67, 48, 54, 61, 75, 79, 78, 67, 32, 89, 23, 91, 95, 67, 41, 57, 82, 64, 89, 51, 58, 79, 44, 87, 76, 75, 69, 56, 113, 53, 51, 15, 19, 40, 62, 41, 12, 96, 40, 87, 21, 30, 72, 56, 41, 14, 65, 79, 84, 48, 57, 59, 60, 45, 50, 20, 44, 54, 28, 47, 40, 37, 18, 102, 58, 38, 96, 102, 72, 20, 96, 64, 52, 64, 19, 62, 22, 23, 54, 35, 26, 97, 67, 109, 63, 7, 38
              |53, 39, 63, 16, 65, 66, 64, 87, 89, 62, 59, 35, 46, 38, 84, 59, 34, 48, 20, 66, 45, 64, 21, 34, 42, 71, 58, 67, 66, 84, 63, 34, 59, 24, 74, 28, 62, 95, 43, 71, 25, 45, 53, 85, 18, 45, 55, 79, 78, 41, 38, 78, 60, 61, 14, 94, 54, 44, 27, 19, 51, 17, 17, 48, 39, 38, 92, 32, 64, 45, 57, 64, 9, 94, 14, 79, 30, 21, 82, 70, 23, 83, 52, 23, 54, 24, 61, 96, 13, 94, 79, 95, 62, 90, 90, 25, 52, 34, 49, 49, 82, 75, 8, 49, 99, 47, 67, 79, 51, 40, 85, 90, 6, 30, 45, 62, 72, 48, 36, 60, 42, 56, 9, 87, 42, 30, 31, 48, 68, 6, 35, 9, 54, 65, 10, 51, 19, 21, 28, 35, 34, 43, 95, 60, 78, 73, 55, 71, 51, 83, 37, 49, 43, 80, 68, 39, 41, 52, 87, 70, 9, 22, 67, 32, 44, 30, 88, 69, 87, 78, 52, 66, 44, 82, 54, 74, 49, 61, 86, 32, 30, 44, 83, 38, 32, 38, 68, 92, 68, 86, 87, 45, 61, 88, 37, 45, 38, 63, 87, 61
              |70, 15, 67, 37, 66, 44, 48, 73, 64, 53, 72, 11, 51, 31, 67, 52, 25, 42, 37, 41, 26, 45, 23, 41, 17, 53, 51, 68, 42, 59, 61, 25, 39, 44, 71, 47, 46, 83, 62, 53, 40, 56, 36, 68, 8, 33, 30, 64, 55, 32, 27, 59, 62, 36, 12, 83, 30, 40, 23, 34, 60, 20, 17, 49, 14, 52, 67, 35, 63, 23, 32, 67, 22, 85, 11, 58, 28, 42, 57, 46, 19, 76, 32, 26, 38, 31, 40, 71, 13, 79, 61, 84, 53, 65, 76, 32, 63, 28, 52, 66, 66, 56, 33, 25, 88, 50, 42, 70, 67, 40, 62, 65, 23, 6, 21, 37, 48, 28, 46, 66, 45, 37, 31, 63, 32, 29, 33, 27, 44, 20, 11, 22, 48, 41, 22, 27, 37, 8, 10, 13, 13, 47, 70, 55, 56, 56, 31, 70, 28, 66, 32, 34, 30, 65, 44, 45, 36, 41, 70, 70, 21, 38, 42, 11, 19, 22, 79, 44, 64, 70, 48, 51, 33, 57, 32, 58, 66, 36, 75, 30, 34, 49, 60, 56, 7, 29, 68, 76, 44, 71, 73, 20, 37, 64, 33, 22, 43, 39, 69, 50
              |89, 23, 92, 52, 92, 63, 73, 98, 69, 80, 94, 23, 75, 6, 89, 78, 2, 68, 55, 48, 17, 67, 16, 24, 27, 75, 77, 94, 57, 70, 87, 2, 62, 60, 97, 64, 70, 108, 79, 76, 60, 78, 60, 90, 31, 60, 43, 88, 71, 6, 2, 81, 88, 46, 32, 108, 31, 66, 49, 28, 83, 42, 20, 75, 28, 73, 71, 60, 89, 45, 40, 93, 39, 111, 27, 78, 53, 57, 68, 46, 13, 102, 55, 49, 63, 54, 60, 76, 25, 103, 84, 110, 79, 74, 100, 55, 85, 5, 77, 85, 89, 79, 42, 40, 113, 75, 51, 96, 86, 17, 78, 72, 39, 24, 41, 42, 48, 19, 68, 91, 70, 59, 45, 78, 6, 11, 58, 50, 46, 35, 25, 27, 75, 43, 40, 44, 54, 21, 16, 19, 37, 25, 74, 82, 75, 80, 48, 96, 47, 89, 8, 59, 7, 89, 60, 69, 62, 67, 93, 96, 39, 57, 49, 37, 30, 48, 105, 50, 80, 96, 75, 76, 59, 66, 52, 81, 85, 39, 101, 10, 17, 73, 76, 74, 27, 55, 94, 99, 43, 95, 97, 35, 54, 78, 9, 24, 22, 38, 91, 76
              |66, 36, 48, 47, 44, 26, 19, 44, 62, 25, 62, 34, 37, 61, 40, 24, 54, 18, 42, 43, 49, 21, 52, 70, 34, 27, 24, 46, 33, 52, 36, 54, 16, 50, 44, 50, 18, 53, 62, 26, 41, 47, 9, 41, 30, 6, 31, 35, 40, 61, 55, 33, 42, 38, 32, 53, 45, 18, 19, 60, 48, 28, 45, 31, 31, 48, 65, 26, 39, 16, 39, 47, 37, 55, 36, 37, 20, 51, 49, 55, 49, 48, 12, 26, 9, 30, 21, 67, 39, 50, 34, 55, 24, 57, 47, 30, 52, 58, 35, 63, 38, 30, 51, 27, 58, 33, 42, 40, 61, 70, 46, 60, 39, 32, 21, 43, 55, 50, 39, 49, 30, 14, 45, 48, 60, 59, 25, 13, 50, 39, 31, 47, 23, 49, 36, 24, 44, 37, 39, 38, 18, 76, 67, 29, 37, 28, 25, 45, 21, 39, 62, 4, 57, 36, 32, 34, 17, 12, 42, 46, 36, 41, 43, 19, 33, 16, 49, 46, 48, 41, 25, 22, 7, 52, 19, 30, 63, 46, 46, 60, 64, 35, 44, 55, 29, 9, 44, 47, 53, 42, 44, 28, 28, 51, 63, 42, 72, 50, 43, 21
              |43, 49, 31, 30, 31, 50, 36, 56, 85, 28, 40, 45, 16, 65, 57, 25, 59, 14, 23, 65, 61, 44, 51, 68, 49, 48, 23, 33, 57, 75, 28, 59, 38, 30, 39, 28, 37, 61, 38, 46, 20, 24, 32, 58, 31, 19, 52, 50, 64, 67, 62, 53, 26, 59, 30, 60, 62, 10, 13, 54, 25, 20, 44, 14, 45, 24, 88, 4, 29, 37, 59, 31, 27, 60, 35, 59, 8, 32, 72, 75, 51, 48, 36, 13, 30, 12, 45, 91, 38, 62, 52, 61, 28, 81, 60, 11, 29, 61, 16, 40, 54, 50, 38, 47, 65, 14, 64, 44, 38, 72, 69, 83, 29, 41, 40, 64, 76, 63, 15, 30, 9, 38, 31, 72, 67, 60, 4, 35, 71, 32, 44, 42, 19, 68, 26, 45, 25, 40, 46, 48, 32, 76, 91, 25, 60, 46, 47, 36, 43, 56, 66, 26, 65, 50, 55, 11, 8, 23, 59, 36, 26, 21, 65, 30, 49, 14, 53, 68, 71, 44, 17, 37, 18, 75, 42, 47, 40, 65, 52, 62, 63, 14, 68, 32, 39, 15, 34, 62, 73, 55, 57, 46, 51, 74, 66, 56, 72, 69, 61, 29
              |93, 49, 67, 76, 61, 9, 18, 31, 45, 36, 86, 49, 61, 78, 19, 38, 72, 40, 70, 37, 59, 7, 74, 92, 45, 7, 39, 62, 21, 32, 51, 72, 13, 79, 54, 78, 15, 43, 89, 10, 69, 73, 19, 19, 54, 32, 31, 21, 17, 76, 71, 10, 62, 33, 58, 45, 49, 43, 47, 84, 72, 56, 68, 54, 44, 75, 48, 54, 54, 28, 39, 65, 64, 50, 61, 8, 48, 79, 29, 50, 69, 50, 19, 55, 21, 58, 12, 48, 63, 35, 14, 48, 34, 36, 31, 59, 76, 75, 58, 90, 20, 9, 78, 33, 49, 57, 33, 41, 87, 89, 19, 41, 66, 50, 31, 41, 49, 59, 66, 69, 55, 15, 73, 23, 75, 78, 52, 24, 45, 65, 47, 72, 41, 45, 63, 28, 72, 59, 58, 53, 39, 96, 49, 43, 9, 14, 24, 57, 24, 18, 79, 25, 71, 23, 16, 60, 43, 29, 22, 60, 63, 70, 35, 40, 43, 44, 47, 38, 21, 43, 44, 20, 33, 34, 20, 15, 90, 45, 41, 79, 85, 60, 18, 83, 47, 37, 59, 29, 50, 27, 29, 37, 20, 26, 80, 51, 92, 50, 19, 29
              |74, 53, 46, 63, 39, 26, 4, 25, 65, 14, 66, 52, 42, 80, 23, 16, 73, 21, 56, 52, 66, 17, 71, 90, 50, 16, 18, 40, 38, 52, 29, 73, 16, 64, 33, 62, 7, 34, 71, 13, 54, 54, 14, 24, 49, 18, 42, 16, 38, 79, 74, 20, 40, 47, 51, 34, 59, 24, 36, 79, 51, 46, 64, 34, 48, 57, 68, 38, 33, 31, 50, 44, 54, 37, 55, 28, 35, 65, 50, 65, 68, 32, 21, 42, 11, 44, 23, 69, 58, 31, 18, 36, 13, 57, 28, 44, 56, 76, 38, 71, 20, 17, 68, 41, 39, 37, 49, 24, 68, 89, 40, 62, 57, 50, 36, 54, 65, 67, 48, 48, 36, 18, 62, 44, 78, 78, 37, 26, 60, 57, 49, 66, 20, 59, 53, 36, 58, 56, 58, 55, 37, 96, 70, 22, 30, 12, 34, 36, 32, 22, 81, 15, 75, 17, 34, 41, 26, 11, 25, 38, 53, 55, 51, 37, 49, 33, 32, 54, 42, 25, 23, 3, 19, 54, 27, 13, 71, 57, 27, 79, 83, 41, 40, 66, 47, 24, 37, 29, 64, 23, 25, 43, 34, 47, 81, 58, 91, 63, 27, 8
              |25, 73, 14, 38, 20, 71, 53, 65, 108, 37, 16, 69, 9, 86, 71, 35, 81, 30, 32, 89, 85, 64, 71, 85, 73, 65, 33, 22, 80, 98, 26, 81, 59, 33, 35, 28, 55, 66, 27, 63, 26, 9, 53, 72, 53, 40, 77, 63, 85, 89, 84, 69, 14, 83, 51, 64, 87, 28, 37, 70, 2, 41, 64, 16, 70, 16, 111, 25, 24, 61, 83, 16, 45, 61, 56, 78, 32, 36, 95, 99, 71, 47, 58, 34, 50, 29, 66, 114, 58, 71, 68, 63, 39, 103, 69, 28, 6, 82, 12, 24, 67, 67, 50, 72, 67, 13, 88, 48, 19, 91, 89, 106, 46, 65, 65, 88, 100, 87, 16, 10, 17, 59, 43, 92, 89, 80, 27, 59, 95, 50, 68, 60, 30, 93, 44, 69, 34, 62, 69, 72, 56, 94, 114, 30, 79, 62, 71, 29, 67, 70, 87, 47, 88, 62, 78, 14, 29, 41, 72, 27, 45, 30, 89, 55, 74, 39, 54, 92, 91, 46, 26, 52, 40, 98, 65, 62, 24, 90, 56, 82, 81, 11, 88, 24, 64, 39, 25, 73, 98, 66, 66, 70, 74, 95, 87, 81, 90, 94, 76, 42
              |80, 64, 48, 73, 40, 33, 13, 13, 70, 17, 70, 64, 48, 91, 17, 20, 85, 29, 66, 60, 77, 24, 83, 102, 61, 18, 22, 41, 45, 57, 31, 85, 26, 74, 30, 71, 17, 22, 79, 15, 63, 60, 26, 17, 61, 30, 52, 8, 41, 91, 85, 18, 43, 56, 63, 22, 69, 33, 47, 91, 57, 57, 76, 40, 59, 64, 73, 48, 34, 42, 60, 45, 66, 26, 67, 30, 45, 75, 54, 74, 80, 25, 32, 53, 23, 54, 32, 73, 70, 19, 15, 25, 16, 61, 16, 54, 61, 88, 43, 78, 13, 17, 79, 51, 27, 43, 57, 16, 73, 101, 42, 66, 68, 62, 47, 63, 73, 78, 56, 51, 43, 28, 73, 46, 90, 90, 47, 37, 69, 69, 61, 78, 26, 68, 64, 46, 68, 68, 70, 67, 49, 108, 74, 25, 33, 11, 44, 35, 42, 16, 93, 27, 87, 7, 41, 49, 36, 22, 17, 37, 65, 65, 59, 49, 60, 45, 22, 62, 44, 18, 29, 10, 30, 59, 37, 11, 78, 67, 16, 91, 95, 48, 42, 73, 59, 36, 37, 19, 73, 12, 13, 54, 43, 49, 93, 69, 103, 72, 22, 14
              |32, 77, 5, 46, 12, 70, 50, 59, 108, 33, 21, 73, 13, 92, 67, 31, 87, 30, 39, 90, 89, 62, 77, 92, 76, 62, 29, 13, 80, 97, 20, 87, 58, 42, 27, 37, 53, 59, 35, 60, 34, 17, 52, 68, 58, 41, 78, 58, 84, 95, 89, 66, 7, 85, 57, 57, 89, 29, 41, 77, 10, 47, 71, 16, 73, 25, 111, 29, 17, 62, 85, 8, 51, 53, 62, 75, 36, 45, 94, 101, 77, 39, 58, 39, 49, 35, 66, 113, 64, 65, 64, 56, 35, 102, 64, 34, 13, 88, 12, 32, 63, 64, 58, 73, 60, 14, 89, 42, 26, 98, 87, 106, 53, 69, 67, 90, 102, 91, 23, 2, 19, 59, 51, 91, 94, 86, 31, 60, 97, 56, 72, 66, 27, 95, 50, 71, 41, 67, 74, 76, 59, 101, 114, 26, 77, 58, 72, 21, 68, 66, 93, 47, 93, 57, 77, 19, 31, 40, 67, 18, 51, 37, 90, 58, 77, 42, 47, 93, 89, 39, 24, 49, 40, 98, 65, 59, 32, 92, 49, 88, 88, 15, 86, 32, 67, 40, 17, 68, 100, 61, 61, 73, 74, 93, 93, 84, 96, 96, 72, 39
              |95, 68, 64, 85, 56, 30, 21, 12, 62, 33, 86, 68, 63, 97, 2, 36, 90, 43, 79, 57, 79, 24, 91, 109, 64, 16, 38, 56, 41, 48, 46, 90, 29, 87, 45, 85, 22, 24, 94, 14, 77, 75, 32, 2, 69, 41, 52, 8, 33, 96, 90, 10, 59, 54, 72, 26, 69, 47, 58, 100, 72, 68, 84, 55, 63, 79, 64, 61, 49, 46, 59, 61, 77, 33, 76, 20, 57, 88, 46, 70, 87, 37, 36, 65, 31, 67, 31, 63, 79, 15, 7, 29, 32, 51, 11, 67, 77, 94, 59, 93, 3, 12, 90, 52, 30, 58, 53, 28, 89, 107, 31, 57, 79, 68, 50, 61, 70, 80, 71, 67, 58, 31, 85, 35, 94, 96, 60, 41, 65, 79, 65, 87, 41, 65, 75, 48, 81, 75, 76, 72, 55, 114, 65, 40, 24, 12, 44, 50, 44, 2, 98, 36, 91, 9, 37, 64, 49, 34, 2, 53, 76, 78, 56, 56, 62, 56, 31, 58, 33, 31, 44, 20, 42, 51, 39, 10, 93, 65, 25, 97, 102, 63, 32, 88, 64, 47, 52, 9, 70, 8, 10, 57, 41, 38, 99, 71, 110, 70, 6, 28
              |6, 82, 30, 36, 38, 88, 71, 84, 123, 56, 9, 78, 26, 90, 90, 53, 85, 48, 33, 102, 93, 81, 73, 84, 83, 83, 52, 39, 95, 113, 45, 85, 76, 29, 53, 24, 73, 85, 12, 81, 28, 14, 69, 91, 60, 56, 90, 82, 102, 93, 89, 88, 33, 97, 57, 83, 97, 45, 48, 68, 17, 48, 68, 35, 80, 16, 126, 36, 43, 74, 95, 33, 48, 79, 61, 95, 44, 32, 111, 111, 75, 65, 74, 43, 67, 37, 83, 129, 63, 90, 86, 82, 58, 119, 88, 36, 13, 86, 31, 6, 86, 85, 48, 84, 86, 31, 101, 67, 1, 92, 106, 122, 49, 73, 78, 100, 112, 96, 23, 26, 33, 76, 43, 109, 94, 82, 38, 74, 108, 53, 77, 61, 48, 105, 48, 83, 33, 68, 76, 80, 68, 93, 129, 49, 97, 80, 85, 47, 81, 89, 89, 64, 93, 81, 94, 28, 45, 59, 91, 44, 49, 31, 102, 66, 85, 51, 73, 105, 108, 65, 45, 71, 56, 113, 80, 81, 6, 101, 75, 84, 82, 27, 105, 14, 73, 53, 43, 92, 109, 85, 86, 82, 89, 112, 89, 90, 89, 105, 95, 61
              |80, 14, 69, 52, 66, 28, 38, 62, 49, 48, 80, 14, 56, 42, 53, 48, 36, 40, 49, 26, 26, 31, 38, 56, 11, 39, 47, 68, 25, 43, 59, 36, 26, 57, 68, 59, 34, 73, 74, 40, 51, 64, 25, 54, 23, 29, 14, 52, 38, 41, 35, 45, 64, 21, 28, 73, 22, 39, 29, 50, 66, 31, 33, 51, 9, 61, 51, 41, 62, 9, 19, 69, 37, 76, 28, 42, 33, 56, 40, 34, 34, 70, 19, 35, 29, 40, 24, 55, 30, 67, 48, 75, 47, 48, 64, 41, 69, 40, 55, 77, 53, 43, 49, 8, 78, 53, 26, 62, 76, 53, 45, 49, 38, 15, 4, 24, 36, 28, 54, 69, 49, 23, 47, 46, 40, 42, 39, 14, 31, 36, 11, 39, 46, 28, 36, 10, 50, 24, 22, 17, 9, 60, 54, 52, 40, 44, 14, 68, 12, 52, 44, 26, 36, 53, 27, 51, 37, 35, 57, 69, 36, 50, 26, 11, 10, 26, 71, 29, 47, 64, 47, 41, 29, 41, 16, 45, 77, 25, 67, 43, 49, 54, 43, 67, 11, 27, 67, 63, 33, 59, 61, 5, 20, 47, 44, 19, 56, 29, 55, 43
              |72, 18, 74, 37, 73, 53, 58, 83, 69, 63, 76, 14, 57, 22, 77, 61, 16, 51, 38, 47, 24, 55, 13, 31, 22, 63, 60, 76, 50, 66, 69, 16, 49, 44, 80, 48, 56, 93, 64, 63, 42, 60, 46, 78, 12, 43, 37, 74, 64, 24, 19, 69, 69, 43, 14, 93, 33, 48, 30, 25, 65, 24, 8, 57, 20, 55, 72, 41, 71, 32, 37, 74, 22, 94, 9, 67, 35, 42, 64, 49, 9, 85, 42, 31, 48, 36, 49, 76, 9, 89, 71, 94, 62, 72, 86, 37, 67, 19, 59, 68, 76, 66, 30, 32, 98, 57, 48, 79, 70, 31, 71, 71, 22, 11, 30, 41, 51, 26, 50, 72, 52, 47, 30, 71, 24, 19, 39, 37, 47, 18, 16, 16, 57, 44, 23, 35, 38, 3, 6, 13, 22, 37, 75, 64, 65, 66, 39, 78, 37, 76, 23, 44, 23, 75, 52, 51, 44, 50, 80, 78, 22, 40, 47, 21, 25, 30, 88, 49, 73, 80, 57, 61, 42, 64, 41, 68, 68, 40, 85, 21, 24, 55, 69, 58, 14, 38, 76, 86, 47, 81, 83, 27, 45, 72, 24, 24, 33, 41, 79, 60
              |89, 76, 55, 85, 47, 41, 25, 1, 75, 28, 79, 75, 58, 103, 15, 31, 97, 41, 78, 68, 88, 33, 95, 114, 72, 25, 33, 47, 53, 61, 38, 97, 36, 85, 34, 83, 28, 11, 89, 23, 75, 70, 37, 16, 73, 42, 62, 11, 46, 103, 97, 22, 51, 65, 75, 13, 79, 45, 60, 103, 66, 70, 89, 50, 71, 75, 77, 59, 41, 53, 69, 53, 78, 19, 80, 33, 58, 87, 59, 82, 92, 25, 43, 65, 35, 66, 41, 77, 83, 7, 18, 16, 27, 64, 5, 66, 70, 100, 53, 88, 12, 23, 92, 61, 17, 53, 65, 17, 83, 113, 45, 70, 81, 74, 58, 72, 81, 89, 67, 59, 54, 39, 85, 49, 102, 102, 59, 48, 77, 81, 72, 90, 37, 77, 77, 56, 80, 80, 82, 79, 61, 120, 78, 34, 37, 19, 54, 40, 52, 15, 105, 39, 98, 9, 48, 60, 48, 34, 13, 43, 77, 77, 67, 62, 71, 57, 18, 70, 46, 20, 40, 22, 43, 64, 48, 17, 88, 76, 12, 103, 107, 58, 45, 84, 71, 48, 43, 10, 81, 5, 4, 65, 51, 52, 105, 80, 116, 81, 19, 26
              |100, 57, 73, 84, 66, 17, 24, 29, 45, 41, 93, 58, 68, 86, 15, 43, 80, 47, 79, 41, 67, 16, 82, 100, 53, 12, 45, 67, 26, 31, 56, 80, 22, 87, 57, 86, 22, 41, 97, 14, 78, 80, 28, 15, 63, 40, 38, 21, 16, 84, 79, 9, 67, 39, 67, 43, 55, 50, 56, 93, 79, 65, 77, 61, 52, 83, 47, 62, 59, 37, 45, 71, 73, 49, 70, 3, 57, 88, 29, 54, 78, 52, 28, 63, 29, 67, 20, 47, 72, 31, 13, 46, 40, 35, 28, 67, 83, 84, 65, 98, 18, 11, 87, 40, 47, 64, 38, 43, 94, 97, 15, 40, 75, 59, 40, 46, 53, 67, 74, 75, 62, 24, 82, 19, 82, 87, 61, 33, 49, 74, 55, 81, 47, 50, 72, 36, 81, 67, 66, 61, 48, 104, 48, 49, 7, 16, 32, 61, 33, 15, 87, 34, 79, 23, 21, 68, 51, 36, 18, 64, 72, 78, 40, 49, 50, 53, 47, 42, 17, 45, 50, 25, 41, 34, 28, 17, 98, 50, 41, 88, 93, 68, 15, 91, 55, 46, 63, 25, 54, 25, 27, 45, 27, 22, 88, 58, 101, 55, 13, 35
              |82, 25, 87, 46, 87, 64, 71, 96, 74, 77, 87, 23, 70, 9, 89, 75, 5, 64, 48, 52, 22, 67, 9, 20, 29, 75, 74, 89, 59, 73, 83, 5, 62, 53, 93, 57, 69, 106, 73, 76, 53, 72, 59, 90, 26, 57, 45, 87, 73, 12, 9, 81, 83, 49, 27, 106, 35, 62, 44, 22, 77, 37, 13, 70, 29, 66, 76, 54, 85, 44, 43, 88, 33, 108, 21, 78, 49, 50, 71, 51, 6, 99, 54, 44, 62, 48, 60, 81, 19, 102, 83, 108, 76, 78, 99, 49, 79, 5, 72, 78, 88, 78, 35, 41, 111, 70, 54, 93, 80, 17, 80, 76, 32, 22, 41, 46, 53, 25, 62, 85, 65, 59, 38, 80, 13, 6, 53, 49, 51, 28, 25, 20, 71, 48, 34, 45, 48, 17, 14, 20, 35, 24, 79, 78, 76, 79, 49, 92, 48, 88, 9, 57, 14, 88, 62, 64, 58, 64, 92, 92, 33, 50, 53, 35, 32, 44, 102, 54, 82, 93, 71, 74, 56, 70, 52, 80, 78, 43, 99, 7, 13, 68, 78, 67, 26, 52, 90, 98, 49, 94, 96, 36, 55, 80, 10, 27, 20, 43, 91, 73
              |86, 21, 71, 59, 67, 19, 33, 56, 42, 46, 83, 22, 59, 50, 46, 46, 44, 41, 56, 21, 32, 23, 47, 65, 17, 32, 46, 68, 16, 35, 59, 44, 20, 64, 66, 65, 29, 67, 79, 34, 57, 68, 21, 47, 32, 29, 9, 45, 29, 48, 43, 37, 65, 15, 36, 68, 24, 41, 34, 59, 69, 38, 42, 53, 16, 66, 45, 45, 62, 7, 16, 70, 45, 72, 37, 34, 38, 64, 32, 32, 43, 67, 14, 41, 25, 46, 16, 48, 39, 61, 40, 70, 45, 40, 57, 47, 73, 48, 57, 82, 46, 35, 58, 5, 73, 55, 20, 59, 81, 61, 36, 41, 46, 24, 5, 21, 33, 32, 58, 71, 51, 17, 54, 37, 47, 51, 43, 10, 28, 44, 19, 48, 46, 26, 44, 1, 57, 33, 31, 25, 16, 68, 48, 51, 31, 37, 5, 67, 4, 45, 52, 24, 43, 47, 18, 55, 39, 33, 50, 69, 44, 56, 21, 18, 15, 31, 67, 24, 38, 60, 47, 36, 29, 33, 9, 39, 82, 23, 62, 52, 58, 57, 34, 73, 20, 30, 67, 56, 31, 52, 55, 9, 11, 38, 52, 24, 65, 28, 47, 40
              |61, 46, 76, 26, 79, 78, 78, 102, 97, 77, 69, 42, 59, 34, 98, 74, 33, 63, 32, 74, 49, 78, 19, 23, 49, 85, 73, 81, 77, 94, 78, 33, 72, 33, 89, 38, 77, 110, 51, 85, 38, 57, 67, 99, 30, 59, 65, 94, 90, 39, 37, 91, 73, 70, 27, 109, 60, 59, 42, 7, 63, 32, 20, 62, 48, 49, 100, 47, 79, 57, 65, 78, 24, 109, 24, 92, 45, 29, 92, 76, 24, 98, 65, 38, 68, 39, 74, 104, 22, 108, 93, 110, 77, 99, 105, 40, 64, 31, 63, 57, 97, 89, 14, 59, 114, 61, 76, 94, 61, 32, 97, 99, 21, 38, 56, 69, 78, 51, 49, 73, 57, 70, 21, 98, 40, 25, 46, 61, 75, 20, 44, 13, 69, 72, 25, 62, 30, 28, 34, 41, 46, 32, 103, 75, 91, 87, 66, 86, 63, 97, 33, 63, 42, 94, 79, 53, 56, 67, 101, 85, 24, 34, 75, 44, 52, 44, 103, 77, 99, 93, 67, 80, 59, 92, 66, 89, 57, 67, 101, 27, 22, 58, 95, 47, 41, 53, 83, 106, 74, 100, 102, 54, 72, 99, 32, 51, 28, 68, 101, 76
              |129, 52, 112, 102, 106, 42, 65, 78, 4, 83, 127, 56, 102, 73, 64, 84, 70, 82, 99, 24, 51, 52, 80, 92, 48, 56, 85, 108, 32, 18, 97, 70, 54, 107, 102, 109, 61, 90, 123, 59, 101, 111, 59, 64, 72, 71, 36, 69, 33, 69, 66, 57, 106, 29, 77, 92, 38, 83, 78, 93, 112, 81, 77, 95, 51, 110, 4, 89, 101, 51, 33, 110, 86, 98, 76, 46, 81, 106, 20, 23, 74, 99, 53, 84, 63, 90, 46, 9, 77, 80, 61, 95, 81, 16, 77, 91, 116, 73, 100, 126, 67, 57, 98, 42, 96, 98, 24, 90, 125, 84, 35, 10, 87, 60, 48, 28, 21, 49, 102, 113, 94, 53, 96, 32, 67, 79, 87, 52, 23, 85, 55, 85, 85, 26, 86, 42, 100, 70, 64, 56, 59, 92, 6, 90, 42, 63, 40, 105, 45, 64, 75, 64, 63, 71, 35, 98, 82, 72, 67, 107, 85, 99, 24, 61, 46, 75, 96, 21, 35, 92, 88, 68, 71, 15, 46, 64, 126, 30, 89, 79, 86, 100, 34, 117, 58, 73, 105, 73, 25, 74, 76, 45, 37, 29, 76, 47, 90, 30, 61, 76
              |60, 81, 24, 68, 16, 60, 37, 35, 99, 21, 48, 79, 34, 103, 46, 21, 97, 30, 61, 86, 94, 51, 91, 108, 79, 47, 22, 15, 72, 86, 13, 97, 50, 66, 1, 61, 41, 32, 63, 44, 56, 44, 46, 47, 69, 40, 75, 38, 71, 105, 99, 49, 22, 80, 69, 30, 90, 33, 51, 94, 38, 60, 84, 28, 76, 51, 102, 44, 13, 61, 83, 21, 67, 25, 74, 60, 47, 68, 83, 98, 89, 11, 53, 53, 42, 52, 57, 102, 77, 39, 45, 28, 22, 90, 39, 51, 41, 100, 29, 60, 42, 47, 78, 72, 32, 30, 83, 16, 54, 111, 72, 95, 70, 76, 66, 87, 98, 96, 45, 28, 34, 51, 71, 76, 104, 99, 45, 57, 93, 72, 76, 82, 24, 92, 66, 68, 63, 78, 83, 82, 63, 116, 103, 17, 63, 41, 67, 7, 64, 45, 104, 43, 102, 36, 68, 39, 37, 34, 45, 10, 67, 59, 85, 63, 79, 51, 19, 88, 74, 14, 24, 35, 40, 88, 60, 41, 60, 90, 23, 101, 103, 35, 72, 59, 73, 44, 11, 44, 97, 38, 37, 73, 68, 79, 105, 87, 112, 95, 51, 27
              |62, 49, 38, 51, 32, 33, 15, 35, 71, 12, 56, 47, 31, 73, 35, 11, 67, 9, 44, 55, 62, 25, 63, 81, 47, 26, 11, 34, 42, 59, 24, 67, 21, 52, 31, 50, 16, 42, 59, 24, 42, 42, 15, 36, 40, 9, 43, 28, 46, 74, 68, 31, 32, 49, 42, 42, 58, 12, 25, 69, 41, 35, 56, 23, 44, 45, 74, 26, 27, 29, 51, 36, 44, 43, 47, 39, 23, 53, 57, 67, 60, 34, 22, 31, 12, 32, 28, 76, 50, 41, 30, 43, 11, 65, 39, 32, 45, 70, 27, 60, 32, 28, 57, 40, 47, 26, 52, 28, 56, 82, 50, 69, 46, 45, 34, 56, 67, 64, 36, 39, 24, 21, 51, 53, 73, 70, 25, 25, 62, 47, 45, 56, 11, 61, 42, 36, 46, 48, 52, 51, 31, 88, 76, 16, 40, 24, 36, 32, 32, 34, 74, 11, 70, 28, 40, 30, 14, 2, 37, 34, 43, 43, 54, 31, 47, 23, 37, 57, 52, 28, 14, 15, 9, 60, 29, 25, 60, 58, 34, 72, 75, 30, 49, 54, 42, 14, 32, 41, 66, 34, 35, 41, 38, 56, 75, 55, 84, 63, 39, 9
              |17, 85, 21, 44, 29, 86, 67, 77, 122, 51, 3, 82, 23, 96, 84, 48, 91, 45, 39, 103, 97, 78, 80, 93, 86, 79, 46, 30, 94, 112, 38, 91, 74, 38, 44, 32, 69, 77, 23, 77, 34, 15, 67, 85, 64, 55, 90, 76, 99, 99, 94, 83, 25, 97, 62, 74, 100, 42, 50, 76, 13, 52, 74, 30, 83, 21, 125, 37, 35, 75, 97, 24, 54, 70, 66, 92, 45, 41, 109, 113, 81, 56, 72, 46, 64, 40, 81, 128, 68, 82, 81, 73, 52, 117, 81, 39, 9, 92, 26, 18, 80, 80, 56, 85, 77, 28, 102, 59, 12, 99, 103, 121, 55, 77, 78, 102, 114, 99, 26, 17, 31, 74, 50, 106, 99, 89, 39, 73, 109, 59, 80, 68, 43, 106, 53, 83, 40, 73, 80, 84, 69, 101, 128, 43, 93, 75, 85, 38, 80, 83, 96, 62, 99, 75, 92, 27, 43, 55, 85, 35, 54, 37, 103, 68, 87, 52, 64, 106, 105, 57, 40, 66, 54, 112, 79, 76, 18, 103, 67, 91, 90, 25, 102, 24, 76, 52, 34, 85, 111, 78, 79, 84, 88, 109, 96, 93, 97, 107, 89, 56
              |35, 59, 22, 32, 23, 58, 42, 58, 94, 29, 30, 56, 5, 74, 61, 26, 69, 18, 25, 75, 71, 51, 60, 76, 59, 54, 24, 25, 66, 84, 23, 69, 46, 30, 34, 26, 43, 61, 33, 52, 20, 15, 40, 62, 40, 27, 62, 54, 72, 77, 71, 59, 18, 69, 39, 60, 72, 15, 23, 61, 15, 29, 53, 8, 56, 18, 97, 11, 23, 47, 69, 22, 34, 58, 44, 66, 18, 32, 81, 85, 59, 45, 45, 21, 37, 17, 53, 100, 46, 64, 57, 60, 30, 90, 62, 17, 19, 70, 7, 32, 58, 56, 43, 57, 64, 6, 73, 43, 29, 80, 77, 93, 36, 51, 51, 74, 86, 74, 10, 20, 3, 46, 35, 80, 76, 69, 13, 45, 81, 39, 54, 49, 20, 79, 33, 55, 27, 49, 56, 58, 42, 84, 100, 24, 67, 51, 57, 30, 52, 60, 75, 34, 75, 53, 64, 3, 16, 29, 63, 29, 34, 23, 75, 41, 60, 25, 51, 78, 79, 42, 17, 42, 26, 84, 51, 52, 32, 75, 51, 71, 71, 3, 75, 27, 50, 24, 27, 65, 83, 58, 59, 56, 60, 82, 75, 66, 79, 79, 66, 33
              |80, 49, 54, 66, 47, 18, 4, 26, 57, 22, 73, 49, 48, 77, 20, 24, 71, 27, 60, 45, 62, 9, 70, 89, 46, 9, 25, 48, 30, 44, 37, 71, 10, 68, 41, 67, 2, 37, 77, 7, 59, 60, 12, 21, 49, 21, 36, 16, 30, 76, 71, 14, 48, 40, 52, 38, 53, 30, 38, 79, 59, 48, 64, 40, 44, 63, 60, 43, 41, 27, 44, 52, 56, 42, 55, 21, 38, 69, 42, 58, 67, 39, 16, 45, 10, 48, 16, 61, 58, 32, 14, 40, 21, 49, 28, 48, 63, 74, 45, 77, 18, 11, 70, 35, 43, 44, 42, 30, 74, 87, 33, 54, 58, 48, 32, 48, 58, 62, 54, 56, 42, 13, 64, 36, 75, 76, 41, 22, 53, 59, 46, 66, 28, 52, 55, 30, 62, 55, 56, 52, 35, 94, 62, 30, 23, 9, 28, 44, 26, 19, 79, 15, 72, 18, 26, 48, 31, 16, 23, 47, 55, 59, 44, 36, 44, 35, 38, 47, 35, 32, 31, 7, 22, 46, 22, 10, 77, 51, 32, 77, 82, 47, 32, 71, 45, 27, 45, 28, 57, 23, 25, 39, 27, 39, 79, 53, 90, 56, 23, 16
              |78, 33, 86, 41, 87, 71, 76, 101, 83, 80, 84, 31, 69, 14, 95, 78, 14, 67, 45, 61, 32, 73, 6, 13, 37, 81, 76, 90, 67, 82, 84, 14, 68, 48, 95, 53, 74, 110, 68, 82, 50, 70, 64, 96, 28, 60, 53, 92, 81, 19, 18, 87, 83, 58, 27, 110, 45, 64, 45, 13, 75, 37, 13, 70, 37, 63, 85, 54, 86, 51, 52, 87, 31, 112, 22, 85, 50, 45, 80, 60, 9, 102, 60, 44, 66, 47, 67, 90, 19, 107, 89, 112, 79, 87, 104, 48, 77, 11, 72, 73, 94, 85, 30, 49, 115, 70, 63, 96, 76, 15, 88, 85, 30, 29, 48, 55, 62, 34, 60, 84, 65, 65, 34, 88, 21, 6, 53, 55, 60, 26, 33, 16, 73, 57, 32, 53, 44, 21, 22, 28, 41, 19, 88, 80, 83, 85, 57, 93, 55, 94, 13, 62, 23, 93, 70, 63, 60, 68, 98, 93, 31, 47, 62, 40, 40, 46, 106, 63, 90, 97, 72, 79, 59, 79, 59, 86, 73, 53, 103, 8, 6, 67, 86, 63, 32, 55, 90, 104, 58, 99, 101, 44, 63, 89, 13, 36, 15, 53, 97, 77
              |89, 7, 80, 57, 77, 34, 48, 71, 45, 59, 89, 10, 66, 35, 62, 59, 30, 51, 56, 22, 16, 39, 36, 52, 3, 48, 58, 79, 28, 42, 70, 30, 36, 64, 79, 66, 44, 82, 81, 49, 59, 73, 35, 62, 28, 40, 14, 61, 41, 33, 28, 53, 75, 18, 32, 83, 12, 50, 38, 49, 76, 38, 33, 62, 6, 70, 47, 51, 73, 19, 13, 80, 42, 87, 31, 48, 43, 62, 40, 26, 31, 81, 29, 43, 39, 49, 32, 52, 32, 76, 56, 85, 58, 47, 73, 50, 79, 34, 66, 85, 62, 51, 53, 11, 88, 64, 23, 73, 85, 47, 49, 46, 43, 15, 14, 17, 28, 17, 63, 80, 59, 33, 51, 49, 32, 38, 48, 24, 24, 40, 9, 40, 57, 21, 42, 16, 57, 25, 19, 12, 19, 54, 50, 63, 45, 53, 19, 79, 19, 61, 37, 37, 28, 63, 31, 61, 48, 46, 65, 80, 41, 57, 23, 20, 1, 36, 82, 24, 50, 74, 58, 51, 40, 39, 24, 54, 85, 16, 77, 38, 45, 64, 46, 75, 13, 38, 78, 72, 24, 68, 70, 7, 24, 49, 38, 8, 51, 19, 62, 54
              |84, 29, 91, 48, 91, 69, 76, 101, 77, 81, 90, 28, 74, 7, 94, 80, 7, 69, 51, 56, 25, 72, 10, 16, 34, 80, 79, 93, 64, 77, 87, 7, 67, 55, 98, 60, 74, 111, 75, 81, 56, 75, 64, 95, 30, 61, 50, 92, 77, 11, 11, 86, 87, 54, 31, 111, 39, 66, 48, 21, 81, 41, 16, 74, 34, 69, 79, 58, 89, 49, 47, 91, 36, 113, 25, 83, 53, 52, 76, 54, 10, 104, 59, 48, 66, 52, 65, 84, 23, 107, 88, 113, 81, 82, 104, 53, 82, 4, 76, 80, 93, 83, 37, 46, 116, 74, 58, 98, 82, 12, 85, 80, 35, 27, 46, 50, 56, 28, 65, 89, 69, 64, 40, 85, 13, 2, 57, 54, 54, 31, 30, 22, 76, 51, 37, 50, 50, 22, 19, 25, 40, 19, 82, 82, 81, 84, 54, 96, 53, 93, 6, 62, 15, 93, 67, 67, 63, 69, 97, 96, 36, 53, 57, 40, 36, 49, 107, 58, 86, 98, 75, 79, 61, 74, 57, 85, 80, 47, 104, 2, 9, 72, 83, 70, 31, 56, 94, 103, 52, 99, 101, 41, 60, 85, 6, 31, 15, 47, 96, 78
              |50, 37, 57, 15, 59, 61, 58, 81, 86, 55, 55, 33, 40, 41, 78, 53, 36, 41, 16, 64, 46, 59, 25, 40, 40, 66, 51, 61, 62, 81, 57, 36, 53, 22, 68, 26, 57, 88, 41, 65, 21, 40, 48, 79, 15, 39, 52, 73, 74, 44, 40, 72, 54, 59, 11, 88, 53, 38, 21, 25, 46, 11, 19, 42, 37, 34, 89, 26, 58, 41, 55, 58, 2, 88, 13, 74, 24, 20, 78, 69, 26, 76, 47, 16, 48, 18, 56, 93, 14, 87, 73, 88, 55, 86, 84, 19, 47, 37, 43, 46, 76, 69, 12, 46, 92, 41, 64, 72, 48, 45, 81, 87, 0, 28, 41, 60, 70, 49, 31, 55, 36, 51, 9, 82, 45, 34, 25, 43, 66, 4, 33, 14, 48, 63, 4, 47, 16, 20, 28, 34, 30, 48, 92, 54, 73, 67, 51, 65, 47, 77, 41, 43, 45, 74, 63, 34, 34, 46, 81, 64, 3, 18, 64, 28, 42, 23, 81, 66, 83, 72, 46, 59, 38, 79, 49, 68, 46, 59, 79, 36, 35, 38, 79, 36, 29, 32, 62, 86, 67, 79, 81, 42, 57, 84, 41, 45, 44, 62, 82, 55
              |57, 35, 66, 21, 67, 64, 63, 87, 86, 62, 63, 31, 48, 33, 83, 60, 29, 49, 24, 63, 41, 63, 17, 31, 38, 70, 59, 69, 64, 81, 65, 29, 57, 28, 76, 33, 62, 95, 48, 70, 29, 48, 52, 84, 16, 45, 52, 79, 76, 37, 33, 77, 62, 58, 12, 95, 50, 45, 28, 17, 54, 18, 12, 50, 36, 42, 88, 34, 66, 43, 54, 67, 10, 95, 10, 78, 31, 26, 79, 66, 19, 84, 51, 24, 53, 27, 59, 92, 9, 93, 78, 96, 63, 87, 90, 28, 55, 29, 51, 53, 82, 74, 12, 46, 99, 50, 64, 80, 55, 36, 83, 87, 9, 26, 42, 58, 68, 44, 39, 63, 45, 55, 14, 84, 38, 26, 33, 46, 64, 6, 32, 5, 55, 61, 12, 49, 23, 17, 24, 31, 32, 40, 91, 62, 76, 72, 52, 73, 49, 83, 33, 48, 38, 80, 65, 42, 42, 52, 86, 73, 11, 26, 63, 30, 41, 30, 89, 65, 85, 79, 54, 65, 44, 79, 52, 74, 53, 57, 86, 28, 27, 47, 81, 43, 28, 39, 70, 91, 64, 85, 87, 42, 58, 85, 33, 41, 35, 59, 86, 61
              |95, 70, 64, 87, 56, 32, 23, 10, 64, 33, 86, 70, 64, 99, 4, 36, 92, 44, 80, 59, 82, 26, 92, 111, 66, 18, 38, 56, 43, 50, 46, 92, 31, 88, 44, 86, 24, 22, 94, 16, 78, 76, 34, 4, 71, 42, 54, 8, 35, 98, 92, 13, 59, 56, 74, 24, 72, 48, 60, 102, 72, 70, 86, 55, 65, 80, 66, 62, 49, 48, 61, 61, 78, 31, 78, 22, 59, 89, 48, 72, 89, 36, 38, 66, 32, 68, 33, 65, 80, 12, 9, 27, 32, 53, 9, 68, 77, 96, 59, 93, 4, 14, 92, 55, 28, 58, 56, 28, 89, 109, 33, 59, 80, 70, 52, 64, 72, 82, 71, 67, 59, 33, 86, 37, 96, 98, 61, 43, 67, 81, 67, 89, 42, 68, 77, 50, 82, 77, 78, 74, 57, 116, 67, 40, 26, 13, 46, 49, 46, 4, 100, 37, 93, 9, 39, 64, 50, 35, 1, 52, 77, 79, 58, 58, 64, 57, 30, 60, 34, 30, 45, 21, 43, 53, 41, 12, 93, 68, 24, 99, 104, 63, 34, 89, 66, 48, 52, 6, 72, 7, 8, 59, 43, 40, 101, 73, 112, 72, 8, 29
              |79, 69, 47, 75, 38, 38, 18, 11, 75, 18, 70, 68, 48, 96, 19, 21, 89, 31, 68, 65, 82, 29, 87, 106, 66, 23, 23, 39, 50, 61, 29, 89, 31, 75, 27, 73, 22, 18, 79, 20, 65, 60, 31, 20, 65, 33, 57, 11, 46, 96, 90, 22, 42, 61, 67, 18, 74, 35, 50, 94, 56, 60, 80, 40, 64, 65, 77, 49, 32, 47, 65, 44, 69, 21, 71, 34, 48, 77, 59, 79, 84, 20, 37, 56, 27, 57, 37, 78, 74, 17, 19, 20, 17, 66, 15, 56, 61, 93, 43, 78, 15, 22, 82, 56, 23, 43, 62, 11, 73, 105, 46, 71, 71, 67, 52, 68, 79, 83, 57, 50, 44, 33, 75, 50, 95, 94, 49, 42, 74, 72, 65, 81, 27, 73, 68, 51, 70, 72, 75, 72, 53, 112, 79, 24, 37, 16, 49, 32, 47, 18, 97, 31, 92, 9, 46, 50, 38, 25, 19, 35, 68, 67, 64, 54, 65, 48, 17, 67, 48, 14, 30, 15, 34, 64, 42, 15, 78, 72, 11, 95, 99, 48, 46, 74, 63, 39, 35, 19, 78, 12, 12, 59, 48, 53, 98, 74, 108, 77, 24, 17
              |69, 37, 49, 50, 45, 24, 17, 41, 60, 24, 64, 35, 39, 63, 37, 24, 56, 19, 45, 42, 50, 18, 54, 73, 34, 24, 24, 46, 31, 49, 36, 56, 13, 53, 44, 52, 15, 51, 64, 24, 44, 50, 6, 38, 32, 8, 31, 32, 38, 63, 57, 30, 43, 37, 35, 51, 45, 20, 22, 63, 50, 31, 47, 32, 32, 50, 63, 29, 40, 16, 38, 48, 40, 54, 39, 34, 23, 54, 47, 54, 51, 46, 10, 29, 7, 33, 19, 65, 42, 47, 31, 53, 24, 55, 44, 33, 54, 60, 37, 66, 35, 27, 54, 27, 56, 35, 40, 39, 63, 72, 43, 58, 42, 34, 21, 43, 55, 51, 41, 50, 32, 12, 48, 46, 62, 61, 27, 12, 49, 42, 33, 50, 24, 48, 38, 23, 47, 39, 41, 39, 20, 79, 66, 29, 34, 26, 23, 45, 20, 36, 64, 2, 59, 33, 30, 36, 19, 11, 40, 46, 39, 44, 42, 21, 34, 19, 48, 45, 45, 40, 25, 19, 8, 50, 17, 27, 66, 45, 44, 62, 66, 37, 42, 58, 30, 12, 45, 45, 53, 39, 41, 28, 26, 48, 65, 42, 74, 50, 40, 19
              |43, 44, 38, 22, 38, 52, 42, 63, 85, 36, 42, 41, 21, 58, 63, 33, 52, 22, 16, 64, 56, 48, 44, 60, 45, 52, 31, 41, 57, 76, 36, 52, 42, 24, 48, 23, 42, 69, 36, 51, 15, 26, 35, 64, 24, 23, 51, 57, 66, 60, 55, 58, 34, 58, 22, 68, 59, 18, 9, 46, 29, 12, 37, 21, 42, 23, 88, 5, 37, 36, 57, 39, 19, 68, 28, 63, 6, 25, 73, 72, 43, 56, 38, 5, 34, 4, 47, 91, 30, 70, 58, 69, 36, 82, 67, 4, 32, 54, 23, 39, 60, 55, 30, 45, 73, 21, 63, 52, 38, 64, 72, 84, 21, 36, 39, 62, 73, 58, 16, 36, 16, 40, 23, 74, 60, 52, 4, 36, 69, 23, 39, 34, 27, 66, 17, 45, 18, 33, 40, 43, 29, 68, 91, 33, 63, 52, 47, 45, 43, 62, 58, 30, 59, 57, 57, 15, 15, 29, 65, 44, 18, 15, 64, 27, 46, 12, 61, 67, 74, 52, 26, 43, 22, 76, 43, 53, 39, 62, 60, 54, 55, 19, 70, 30, 35, 17, 42, 69, 70, 62, 64, 43, 52, 76, 59, 52, 64, 66, 67, 36
              |89, 4, 83, 55, 81, 42, 55, 79, 50, 65, 90, 8, 68, 27, 69, 64, 22, 55, 55, 28, 9, 47, 29, 44, 6, 55, 63, 83, 35, 49, 75, 22, 43, 62, 84, 65, 51, 90, 80, 57, 58, 74, 42, 70, 26, 45, 22, 68, 49, 25, 20, 61, 78, 25, 30, 90, 13, 54, 40, 43, 77, 38, 27, 65, 9, 70, 53, 52, 77, 26, 19, 83, 40, 93, 28, 56, 45, 60, 47, 29, 24, 87, 36, 44, 46, 49, 40, 57, 28, 84, 64, 92, 64, 54, 80, 50, 80, 26, 68, 85, 69, 59, 49, 19, 95, 66, 30, 79, 85, 39, 57, 52, 40, 13, 21, 22, 31, 11, 64, 83, 62, 40, 49, 56, 24, 30, 50, 31, 28, 37, 9, 35, 62, 25, 40, 23, 55, 21, 13, 6, 22, 46, 56, 68, 53, 60, 27, 84, 27, 69, 29, 43, 20, 70, 39, 63, 51, 51, 73, 84, 39, 56, 29, 23, 9, 38, 88, 30, 58, 80, 62, 58, 45, 46, 32, 62, 85, 20, 84, 31, 37, 66, 54, 74, 13, 42, 82, 79, 27, 75, 78, 14, 32, 57, 30, 4, 43, 22, 70, 60
              |50, 73, 15, 56, 7, 58, 36, 41, 97, 18, 39, 71, 22, 94, 50, 17, 88, 22, 49, 81, 87, 49, 81, 98, 72, 48, 16, 8, 69, 85, 3, 88, 47, 54, 10, 50, 39, 41, 52, 45, 44, 33, 42, 50, 59, 33, 70, 41, 70, 96, 90, 50, 11, 76, 59, 39, 84, 24, 41, 84, 27, 50, 74, 17, 69, 39, 100, 33, 1, 55, 78, 13, 57, 36, 64, 60, 37, 56, 82, 94, 80, 22, 49, 43, 38, 40, 54, 101, 67, 47, 48, 38, 19, 90, 46, 40, 31, 90, 17, 49, 45, 48, 66, 66, 42, 19, 79, 23, 44, 101, 73, 94, 59, 67, 60, 82, 94, 88, 34, 19, 23, 48, 59, 76, 95, 89, 34, 52, 89, 61, 69, 72, 16, 87, 55, 63, 51, 68, 74, 74, 55, 106, 102, 11, 63, 42, 63, 7, 59, 49, 95, 38, 93, 40, 66, 27, 27, 29, 50, 7, 56, 47, 81, 55, 72, 41, 29, 84, 75, 21, 15, 34, 33, 86, 56, 42, 49, 85, 31, 91, 93, 23, 72, 48, 65, 35, 5, 50, 92, 43, 43, 67, 64, 79, 95, 80, 101, 90, 55, 25
              |92, 42, 102, 56, 103, 82, 90, 115, 87, 94, 99, 41, 85, 13, 107, 93, 19, 82, 61, 67, 35, 85, 21, 10, 46, 93, 92, 105, 76, 89, 100, 19, 80, 63, 111, 68, 87, 124, 82, 94, 66, 85, 77, 108, 43, 75, 62, 105, 90, 17, 21, 99, 98, 65, 43, 125, 49, 79, 61, 24, 91, 52, 28, 86, 47, 79, 89, 70, 102, 62, 59, 103, 47, 126, 38, 96, 65, 60, 87, 63, 23, 117, 73, 60, 80, 63, 79, 94, 35, 121, 102, 126, 94, 93, 117, 64, 92, 15, 88, 88, 107, 97, 44, 59, 129, 86, 70, 111, 91, 2, 97, 90, 45, 41, 59, 61, 65, 37, 76, 100, 81, 77, 49, 97, 19, 13, 69, 67, 64, 42, 44, 32, 89, 61, 48, 63, 59, 35, 33, 38, 54, 6, 92, 95, 93, 97, 67, 109, 66, 107, 11, 76, 23, 106, 79, 79, 75, 82, 111, 108, 47, 63, 68, 53, 49, 62, 120, 69, 99, 111, 88, 93, 74, 85, 70, 99, 88, 57, 117, 11, 10, 83, 95, 78, 44, 69, 106, 117, 61, 112, 114, 54, 72, 97, 10, 42, 5, 56, 109, 92
              |75, 72, 40, 73, 32, 44, 22, 16, 82, 16, 64, 71, 44, 98, 26, 18, 92, 30, 66, 71, 85, 35, 88, 107, 70, 30, 20, 32, 56, 68, 24, 92, 36, 73, 20, 70, 26, 18, 75, 26, 63, 56, 34, 27, 66, 34, 62, 18, 53, 98, 93, 30, 36, 66, 67, 17, 79, 34, 50, 95, 51, 60, 81, 36, 68, 61, 84, 48, 26, 51, 70, 38, 69, 18, 72, 41, 47, 75, 66, 84, 86, 13, 41, 55, 30, 55, 42, 84, 75, 21, 26, 18, 15, 72, 20, 55, 56, 95, 39, 73, 22, 28, 81, 60, 22, 39, 68, 4, 68, 107, 53, 78, 71, 69, 56, 74, 84, 87, 54, 44, 41, 38, 74, 57, 97, 96, 47, 46, 79, 72, 68, 82, 24, 79, 67, 56, 68, 74, 77, 75, 56, 113, 86, 20, 44, 23, 54, 25, 52, 26, 99, 34, 95, 16, 52, 47, 37, 26, 25, 28, 68, 65, 70, 56, 69, 48, 12, 73, 55, 7, 27, 19, 35, 70, 47, 22, 73, 77, 9, 97, 100, 44, 53, 70, 66, 40, 28, 25, 83, 18, 18, 63, 53, 61, 100, 78, 109, 82, 31, 17
              |95, 23, 96, 59, 96, 62, 74, 98, 64, 82, 99, 23, 80, 10, 89, 81, 9, 71, 61, 44, 13, 66, 23, 30, 26, 75, 80, 98, 55, 66, 90, 9, 62, 66, 100, 70, 71, 109, 86, 76, 65, 83, 61, 90, 35, 62, 41, 88, 68, 6, 5, 81, 92, 43, 37, 109, 27, 69, 52, 35, 88, 47, 26, 79, 28, 78, 66, 64, 93, 45, 36, 97, 45, 112, 32, 76, 57, 64, 65, 40, 19, 105, 55, 54, 64, 59, 59, 71, 31, 103, 83, 111, 81, 70, 100, 60, 90, 12, 81, 91, 89, 78, 49, 38, 114, 79, 47, 98, 92, 21, 76, 67, 45, 26, 40, 38, 42, 14, 73, 95, 74, 60, 52, 75, 4, 17, 62, 50, 41, 41, 26, 34, 78, 38, 46, 43, 60, 26, 19, 20, 39, 29, 69, 84, 73, 80, 47, 99, 47, 88, 12, 61, 0, 89, 58, 74, 66, 69, 93, 100, 45, 63, 46, 39, 28, 52, 107, 46, 77, 98, 78, 77, 61, 62, 52, 81, 91, 35, 102, 17, 24, 78, 73, 80, 29, 58, 98, 99, 38, 95, 97, 34, 52, 75, 13, 21, 27, 33, 90, 78
              |122, 53, 101, 98, 95, 31, 52, 62, 13, 70, 118, 56, 93, 79, 48, 72, 74, 72, 94, 25, 57, 39, 82, 97, 49, 42, 73, 96, 23, 4, 85, 74, 43, 103, 89, 104, 49, 74, 117, 45, 95, 103, 49, 48, 70, 62, 34, 54, 18, 76, 72, 42, 95, 28, 75, 76, 43, 74, 72, 95, 103, 77, 79, 86, 50, 103, 14, 82, 89, 45, 34, 99, 84, 83, 75, 31, 75, 102, 7, 32, 77, 84, 44, 79, 52, 84, 35, 13, 77, 64, 46, 79, 69, 1, 61, 85, 107, 78, 90, 119, 51, 43, 96, 39, 80, 88, 23, 75, 117, 90, 19, 7, 85, 60, 44, 31, 31, 55, 95, 103, 86, 42, 93, 15, 74, 83, 80, 45, 29, 83, 55, 86, 74, 32, 83, 38, 96, 70, 65, 58, 55, 98, 15, 78, 27, 48, 34, 92, 38, 48, 81, 54, 69, 56, 24, 90, 73, 61, 51, 94, 83, 95, 24, 57, 46, 69, 81, 24, 18, 78, 77, 55, 62, 7, 38, 49, 119, 35, 74, 83, 90, 91, 18, 111, 57, 65, 93, 57, 34, 58, 60, 44, 29, 12, 82, 50, 96, 37, 45, 64
              |80, 36, 90, 44, 91, 74, 80, 105, 84, 83, 87, 33, 73, 13, 98, 81, 15, 70, 48, 63, 33, 76, 9, 10, 40, 84, 80, 93, 70, 84, 88, 15, 71, 51, 99, 56, 77, 114, 70, 85, 53, 73, 67, 99, 32, 64, 56, 95, 83, 18, 18, 90, 86, 60, 31, 114, 46, 67, 49, 14, 79, 40, 16, 74, 39, 66, 87, 58, 89, 54, 54, 91, 34, 115, 26, 88, 53, 48, 82, 61, 13, 106, 64, 47, 70, 51, 70, 92, 23, 111, 92, 115, 83, 89, 107, 52, 80, 11, 75, 76, 97, 88, 32, 52, 119, 74, 65, 100, 79, 12, 91, 87, 33, 32, 51, 57, 63, 35, 64, 88, 69, 68, 37, 91, 20, 5, 56, 58, 62, 29, 36, 19, 77, 58, 36, 56, 47, 24, 24, 31, 44, 16, 90, 83, 86, 88, 60, 97, 58, 97, 12, 65, 23, 96, 73, 66, 64, 71, 102, 96, 35, 50, 64, 43, 43, 50, 109, 65, 92, 100, 76, 82, 63, 81, 62, 89, 76, 54, 106, 6, 3, 71, 89, 66, 35, 58, 94, 107, 59, 102, 104, 47, 66, 91, 11, 38, 11, 54, 100, 81
              |106, 53, 81, 87, 75, 15, 32, 40, 34, 50, 100, 54, 75, 81, 26, 52, 76, 54, 82, 33, 61, 20, 80, 97, 48, 20, 53, 76, 19, 20, 65, 76, 25, 91, 67, 90, 29, 52, 102, 23, 82, 87, 32, 26, 63, 45, 33, 32, 6, 79, 74, 20, 76, 31, 67, 54, 48, 56, 59, 92, 86, 67, 75, 68, 48, 88, 36, 67, 68, 36, 38, 79, 74, 60, 69, 8, 61, 91, 18, 45, 75, 62, 30, 66, 34, 71, 20, 36, 71, 42, 24, 57, 48, 24, 39, 71, 90, 80, 72, 103, 29, 21, 88, 36, 58, 71, 29, 53, 101, 93, 5, 29, 76, 56, 37, 38, 44, 60, 79, 83, 69, 27, 84, 9, 77, 83, 65, 33, 40, 75, 52, 80, 55, 41, 74, 32, 84, 66, 63, 57, 47, 100, 37, 57, 5, 26, 28, 71, 30, 26, 83, 38, 73, 34, 15, 74, 56, 43, 29, 73, 73, 82, 31, 49, 46, 56, 58, 33, 7, 56, 58, 34, 46, 23, 27, 27, 103, 42, 52, 84, 90, 74, 4, 96, 53, 50, 72, 35, 45, 36, 38, 41, 22, 12, 84, 53, 97, 47, 23, 43
              |69, 46, 45, 55, 39, 26, 9, 33, 64, 16, 63, 45, 37, 72, 30, 16, 66, 16, 49, 49, 59, 18, 63, 82, 44, 20, 17, 40, 36, 52, 30, 66, 14, 57, 36, 56, 9, 42, 66, 18, 47, 49, 9, 31, 41, 10, 38, 24, 39, 72, 66, 25, 39, 43, 43, 42, 54, 19, 28, 71, 48, 38, 56, 30, 41, 51, 67, 31, 33, 25, 46, 43, 46, 44, 47, 32, 27, 58, 50, 61, 60, 37, 16, 34, 5, 37, 21, 69, 50, 39, 25, 43, 15, 58, 36, 37, 52, 69, 34, 66, 28, 22, 60, 35, 47, 33, 46, 30, 63, 81, 43, 62, 49, 43, 30, 50, 62, 60, 42, 46, 31, 15, 54, 46, 71, 70, 30, 20, 56, 49, 42, 58, 18, 55, 45, 31, 51, 48, 51, 48, 29, 88, 69, 22, 33, 19, 30, 38, 27, 29, 73, 7, 68, 25, 33, 36, 20, 5, 33, 40, 46, 48, 48, 30, 43, 25, 38, 51, 45, 31, 21, 11, 11, 53, 23, 20, 66, 53, 34, 71, 75, 36, 42, 60, 40, 16, 38, 37, 60, 31, 33, 37, 31, 49, 74, 52, 83, 58, 34, 10
              |81, 7, 78, 47, 77, 46, 55, 79, 58, 62, 83, 4, 62, 24, 71, 61, 18, 52, 47, 36, 15, 49, 22, 39, 11, 57, 60, 79, 41, 56, 71, 18, 44, 54, 81, 57, 52, 90, 73, 58, 51, 67, 42, 72, 18, 42, 27, 69, 55, 24, 18, 63, 73, 32, 22, 90, 22, 50, 34, 35, 71, 31, 19, 60, 10, 63, 61, 46, 73, 26, 26, 78, 32, 93, 19, 60, 39, 52, 54, 38, 17, 85, 37, 37, 45, 42, 42, 65, 19, 85, 65, 92, 62, 61, 81, 43, 74, 22, 63, 77, 71, 61, 41, 23, 95, 61, 37, 78, 78, 35, 62, 60, 32, 6, 22, 30, 39, 17, 57, 77, 56, 41, 40, 62, 22, 25, 44, 31, 36, 28, 7, 27, 58, 33, 32, 27, 47, 12, 5, 2, 19, 42, 64, 65, 57, 62, 31, 80, 30, 70, 26, 41, 20, 71, 44, 56, 47, 49, 75, 80, 31, 48, 36, 19, 14, 33, 87, 38, 64, 79, 58, 58, 42, 53, 34, 63, 77, 29, 83, 25, 31, 60, 60, 67, 9, 38, 78, 81, 36, 76, 78, 18, 37, 63, 26, 13, 38, 30, 73, 58
              |86, 84, 50, 87, 42, 52, 33, 13, 87, 30, 75, 83, 57, 111, 27, 32, 105, 43, 80, 80, 97, 44, 102, 120, 81, 36, 34, 42, 64, 73, 35, 105, 46, 86, 28, 83, 37, 5, 87, 34, 76, 68, 46, 28, 79, 47, 72, 22, 58, 111, 105, 34, 47, 75, 81, 3, 89, 47, 64, 108, 63, 74, 95, 49, 79, 74, 89, 61, 37, 62, 80, 48, 82, 7, 86, 45, 61, 88, 71, 93, 99, 16, 52, 69, 42, 69, 51, 89, 89, 14, 30, 4, 29, 77, 16, 68, 67, 108, 52, 85, 24, 34, 95, 71, 8, 52, 76, 13, 80, 120, 57, 82, 85, 82, 67, 83, 93, 98, 67, 54, 54, 48, 88, 61, 110, 109, 61, 57, 88, 86, 81, 95, 38, 88, 81, 66, 82, 87, 90, 87, 68, 127, 91, 33, 49, 30, 64, 34, 62, 27, 112, 46, 107, 20, 60, 60, 51, 40, 25, 37, 82, 78, 78, 69, 80, 62, 8, 81, 58, 15, 40, 30, 48, 76, 57, 28, 85, 87, 5, 110, 114, 57, 57, 83, 79, 53, 37, 21, 92, 17, 16, 74, 62, 64, 113, 89, 122, 92, 31, 30
              |81, 39, 92, 45, 93, 77, 83, 108, 87, 86, 88, 36, 75, 15, 101, 84, 17, 73, 50, 66, 36, 79, 12, 7, 43, 87, 83, 95, 73, 87, 90, 17, 74, 52, 101, 57, 80, 117, 71, 88, 55, 74, 70, 102, 35, 66, 59, 98, 87, 20, 21, 94, 88, 63, 34, 117, 49, 70, 52, 14, 80, 43, 19, 76, 42, 68, 90, 60, 92, 57, 57, 93, 36, 118, 28, 92, 56, 49, 85, 64, 16, 108, 67, 50, 73, 53, 73, 94, 26, 114, 96, 118, 86, 92, 110, 54, 81, 14, 77, 77, 100, 91, 33, 55, 122, 76, 68, 103, 80, 11, 94, 90, 35, 35, 54, 60, 66, 38, 65, 89, 71, 71, 38, 94, 22, 8, 59, 61, 64, 31, 39, 21, 79, 61, 38, 59, 48, 27, 28, 34, 47, 13, 93, 86, 89, 91, 63, 99, 61, 100, 14, 68, 25, 99, 76, 68, 66, 74, 105, 98, 37, 52, 67, 46, 46, 53, 112, 68, 96, 103, 78, 85, 66, 84, 65, 92, 77, 57, 109, 9, 1, 73, 92, 67, 38, 61, 96, 110, 62, 105, 107, 50, 69, 94, 13, 41, 9, 57, 103, 83
              |36, 56, 25, 30, 26, 56, 41, 58, 92, 29, 32, 53, 8, 71, 61, 26, 66, 17, 23, 72, 68, 50, 57, 73, 56, 53, 24, 28, 64, 82, 25, 66, 45, 29, 36, 25, 42, 62, 33, 51, 19, 17, 38, 62, 37, 25, 60, 53, 70, 74, 68, 58, 21, 67, 36, 61, 70, 14, 20, 58, 18, 26, 50, 9, 53, 19, 95, 8, 25, 44, 66, 25, 31, 59, 41, 64, 15, 31, 79, 82, 57, 46, 42, 18, 36, 15, 51, 98, 43, 64, 57, 61, 30, 88, 62, 14, 22, 67, 10, 34, 57, 55, 40, 55, 65, 8, 71, 44, 31, 77, 75, 91, 33, 48, 48, 71, 83, 71, 10, 23, 4, 44, 33, 78, 73, 66, 10, 43, 78, 36, 51, 47, 20, 76, 30, 53, 25, 46, 53, 55, 39, 81, 98, 24, 65, 50, 54, 33, 50, 60, 72, 32, 72, 53, 62, 4, 14, 28, 62, 31, 31, 21, 72, 38, 57, 22, 52, 75, 77, 43, 17, 41, 24, 82, 49, 51, 34, 72, 52, 68, 68, 6, 74, 27, 47, 22, 29, 65, 81, 58, 59, 53, 58, 80, 72, 64, 77, 77, 65, 32
              |89, 39, 99, 53, 100, 79, 86, 111, 85, 91, 96, 38, 82, 11, 104, 89, 16, 78, 57, 65, 33, 82, 17, 9, 43, 90, 88, 102, 73, 86, 96, 16, 77, 60, 107, 65, 84, 121, 79, 91, 63, 82, 74, 105, 40, 71, 59, 102, 87, 15, 18, 96, 95, 63, 39, 121, 47, 75, 57, 22, 88, 49, 25, 82, 43, 75, 87, 66, 98, 59, 56, 100, 43, 123, 34, 93, 62, 57, 85, 61, 19, 113, 69, 56, 76, 60, 75, 92, 31, 117, 98, 122, 91, 91, 114, 61, 89, 12, 84, 85, 103, 93, 41, 56, 126, 82, 67, 107, 88, 3, 94, 88, 42, 37, 56, 58, 63, 35, 73, 97, 77, 74, 46, 94, 17, 9, 65, 64, 62, 38, 40, 28, 85, 59, 45, 60, 56, 31, 29, 34, 50, 9, 90, 92, 90, 94, 64, 105, 63, 103, 9, 72, 21, 103, 76, 75, 72, 79, 107, 105, 44, 59, 66, 50, 46, 58, 117, 66, 96, 108, 84, 89, 70, 83, 67, 95, 85, 55, 113, 8, 7, 80, 92, 75, 41, 66, 102, 113, 59, 109, 111, 51, 69, 94, 8, 40, 6, 54, 106, 88
              |24, 65, 45, 13, 51, 80, 69, 88, 111, 60, 33, 60, 32, 67, 90, 57, 63, 47, 14, 89, 74, 76, 50, 60, 67, 80, 55, 53, 85, 103, 54, 63, 70, 6, 64, 5, 70, 92, 14, 79, 13, 23, 63, 91, 42, 51, 76, 83, 94, 71, 67, 86, 45, 83, 38, 91, 80, 43, 36, 44, 30, 31, 46, 39, 64, 16, 114, 29, 53, 63, 81, 48, 28, 89, 41, 91, 34, 8, 101, 95, 53, 75, 66, 29, 62, 24, 75, 117, 42, 95, 85, 91, 60, 109, 92, 24, 29, 63, 37, 20, 87, 83, 24, 71, 95, 36, 89, 74, 24, 68, 100, 111, 28, 55, 65, 86, 97, 76, 21, 42, 34, 69, 20, 102, 71, 59, 30, 64, 93, 32, 60, 38, 50, 90, 28, 71, 13, 48, 56, 62, 54, 69, 117, 55, 91, 79, 74, 60, 69, 89, 66, 58, 72, 83, 85, 28, 41, 56, 92, 57, 29, 13, 89, 51, 69, 39, 82, 92, 102, 73, 48, 70, 50, 102, 70, 80, 20, 86, 82, 61, 58, 31, 98, 10, 56, 46, 56, 95, 93, 88, 89, 67, 79, 104, 66, 72, 65, 89, 94, 62
              |64, 41, 43, 47, 39, 29, 17, 41, 66, 20, 59, 39, 33, 65, 38, 19, 59, 13, 41, 48, 54, 23, 55, 74, 39, 27, 19, 41, 37, 55, 31, 59, 17, 49, 39, 48, 17, 50, 60, 26, 40, 44, 11, 39, 33, 2, 36, 33, 43, 65, 60, 33, 38, 42, 35, 50, 50, 14, 19, 62, 44, 29, 48, 27, 36, 45, 69, 24, 34, 21, 44, 42, 38, 51, 39, 38, 19, 50, 52, 60, 52, 43, 16, 26, 9, 29, 24, 71, 42, 47, 33, 51, 20, 61, 44, 29, 48, 62, 31, 61, 36, 30, 52, 32, 54, 29, 46, 36, 58, 74, 48, 64, 40, 36, 26, 48, 60, 55, 36, 44, 26, 17, 46, 51, 64, 62, 23, 18, 55, 41, 36, 49, 18, 53, 37, 29, 43, 40, 44, 42, 23, 80, 71, 24, 38, 27, 29, 40, 25, 37, 66, 5, 62, 34, 35, 31, 14, 7, 41, 41, 37, 40, 48, 23, 38, 17, 45, 51, 50, 37, 20, 19, 3, 55, 23, 28, 61, 51, 42, 64, 67, 32, 47, 53, 33, 8, 39, 46, 58, 39, 41, 33, 32, 53, 67, 47, 76, 55, 42, 16
              |73, 73, 39, 73, 31, 45, 23, 17, 83, 15, 63, 72, 43, 98, 28, 18, 92, 29, 66, 72, 86, 36, 88, 107, 70, 31, 20, 31, 57, 69, 22, 92, 36, 72, 18, 69, 27, 19, 74, 28, 62, 55, 35, 28, 66, 34, 63, 19, 54, 99, 93, 31, 35, 67, 67, 17, 80, 33, 50, 94, 50, 60, 81, 35, 68, 60, 85, 47, 25, 51, 71, 36, 68, 18, 72, 42, 47, 74, 67, 85, 86, 12, 41, 54, 31, 55, 43, 86, 75, 23, 27, 18, 15, 74, 22, 54, 54, 95, 38, 72, 23, 30, 81, 61, 22, 38, 69, 3, 67, 107, 55, 79, 70, 70, 56, 75, 85, 87, 53, 43, 40, 39, 74, 59, 98, 96, 47, 46, 80, 72, 69, 82, 24, 79, 67, 57, 68, 74, 77, 75, 56, 113, 87, 19, 46, 24, 55, 24, 52, 27, 100, 34, 95, 18, 53, 46, 36, 26, 27, 27, 67, 64, 71, 56, 69, 48, 12, 74, 56, 5, 26, 20, 35, 72, 48, 23, 72, 78, 9, 97, 100, 43, 55, 69, 66, 40, 27, 26, 84, 19, 19, 64, 54, 62, 100, 78, 109, 83, 33, 17
              |58, 42, 39, 42, 35, 35, 22, 44, 71, 20, 53, 40, 28, 65, 43, 18, 59, 9, 36, 53, 56, 29, 54, 72, 41, 33, 17, 37, 43, 61, 28, 59, 23, 44, 38, 43, 22, 52, 54, 31, 34, 38, 17, 44, 31, 4, 40, 37, 49, 66, 60, 38, 33, 47, 33, 51, 53, 9, 16, 60, 38, 26, 47, 21, 38, 39, 74, 19, 31, 25, 48, 38, 34, 52, 37, 44, 14, 45, 58, 64, 52, 43, 21, 22, 15, 24, 30, 77, 40, 51, 38, 52, 20, 66, 48, 24, 42, 61, 26, 55, 40, 35, 48, 36, 56, 24, 51, 37, 52, 73, 54, 69, 37, 37, 30, 52, 65, 57, 30, 39, 21, 23, 41, 57, 65, 62, 17, 22, 59, 38, 38, 47, 15, 58, 33, 33, 38, 40, 44, 43, 24, 79, 77, 22, 44, 32, 34, 37, 30, 42, 66, 11, 63, 37, 41, 25, 8, 9, 45, 38, 34, 35, 52, 24, 41, 14, 46, 55, 56, 37, 16, 23, 3, 61, 28, 33, 55, 55, 43, 63, 66, 26, 52, 48, 34, 5, 36, 49, 62, 43, 45, 36, 37, 59, 66, 49, 75, 59, 47, 18
              |73, 12, 67, 42, 65, 38, 44, 69, 59, 51, 74, 9, 52, 35, 62, 49, 28, 40, 40, 36, 25, 39, 28, 47, 13, 48, 49, 67, 36, 54, 59, 28, 34, 48, 69, 50, 41, 79, 66, 48, 43, 58, 31, 62, 13, 30, 24, 59, 49, 35, 29, 54, 62, 31, 17, 79, 27, 38, 24, 39, 61, 23, 23, 49, 10, 55, 61, 36, 62, 17, 27, 67, 27, 81, 17, 52, 28, 47, 51, 42, 24, 73, 27, 28, 34, 34, 34, 65, 19, 74, 56, 81, 50, 59, 71, 34, 64, 32, 52, 69, 61, 51, 39, 19, 84, 50, 36, 66, 69, 45, 56, 59, 28, 6, 15, 32, 43, 27, 48, 66, 45, 31, 36, 57, 34, 34, 34, 21, 39, 25, 7, 28, 47, 36, 26, 21, 41, 13, 13, 12, 8, 51, 64, 53, 50, 51, 25, 68, 22, 61, 36, 30, 31, 60, 38, 46, 35, 38, 65, 69, 26, 41, 36, 8, 15, 22, 75, 39, 58, 67, 47, 47, 30, 52, 26, 53, 69, 32, 72, 35, 39, 50, 54, 59, 3, 27, 67, 71, 40, 66, 68, 14, 31, 58, 37, 20, 47, 35, 64, 47
              |85, 79, 51, 84, 42, 46, 27, 8, 81, 26, 75, 78, 55, 106, 22, 29, 99, 40, 77, 74, 91, 38, 97, 116, 76, 30, 31, 42, 58, 67, 34, 99, 40, 84, 29, 81, 31, 8, 86, 28, 73, 67, 40, 22, 75, 43, 66, 16, 52, 106, 100, 28, 47, 69, 76, 8, 83, 44, 60, 104, 62, 70, 90, 47, 74, 72, 83, 58, 37, 57, 74, 48, 78, 13, 81, 39, 57, 85, 65, 87, 94, 18, 46, 65, 37, 66, 45, 83, 84, 11, 24, 10, 26, 71, 11, 65, 66, 103, 50, 84, 18, 28, 91, 65, 13, 50, 70, 12, 79, 115, 51, 77, 81, 77, 61, 77, 86, 92, 65, 54, 52, 42, 85, 55, 104, 104, 58, 52, 82, 82, 75, 91, 35, 81, 77, 60, 79, 82, 84, 82, 63, 122, 85, 31, 43, 24, 58, 35, 56, 22, 107, 41, 101, 14, 54, 58, 47, 35, 20, 38, 78, 75, 72, 64, 74, 58, 12, 75, 52, 15, 38, 24, 44, 70, 51, 22, 84, 81, 6, 105, 109, 55, 52, 81, 73, 49, 38, 16, 86, 12, 10, 68, 56, 58, 108, 83, 117, 86, 26, 26
              |48, 69, 16, 52, 9, 56, 34, 42, 94, 16, 38, 67, 19, 90, 49, 14, 83, 18, 45, 78, 82, 47, 76, 93, 68, 46, 13, 10, 66, 82, 3, 83, 44, 50, 14, 46, 37, 43, 49, 43, 40, 30, 39, 50, 55, 29, 66, 41, 68, 91, 85, 49, 10, 73, 55, 41, 80, 19, 37, 79, 25, 45, 69, 13, 65, 36, 97, 28, 4, 51, 74, 13, 52, 38, 60, 59, 32, 52, 79, 90, 75, 25, 45, 38, 35, 36, 51, 99, 63, 48, 47, 41, 18, 87, 46, 35, 29, 86, 14, 47, 45, 47, 62, 63, 45, 15, 76, 25, 42, 97, 71, 91, 54, 63, 56, 79, 90, 84, 30, 18, 18, 45, 55, 75, 91, 85, 29, 48, 85, 57, 64, 67, 12, 84, 51, 59, 47, 64, 69, 70, 51, 101, 99, 8, 61, 41, 59, 11, 56, 48, 90, 34, 89, 40, 63, 23, 23, 26, 50, 11, 52, 43, 77, 50, 68, 37, 32, 81, 73, 23, 11, 33, 29, 83, 52, 41, 47, 81, 33, 87, 88, 20, 70, 45, 61, 31, 9, 50, 89, 43, 44, 63, 61, 77, 91, 76, 97, 86, 54, 23
              |96, 24, 98, 59, 97, 63, 75, 99, 65, 83, 100, 25, 81, 9, 91, 82, 9, 72, 62, 46, 14, 68, 23, 29, 28, 76, 81, 99, 56, 67, 91, 9, 64, 67, 102, 71, 72, 110, 86, 78, 66, 84, 62, 91, 36, 63, 42, 89, 70, 5, 5, 82, 93, 44, 38, 111, 28, 70, 54, 35, 89, 48, 27, 80, 29, 79, 67, 65, 94, 46, 38, 98, 46, 114, 33, 77, 59, 64, 66, 41, 20, 106, 57, 55, 66, 60, 61, 72, 32, 105, 85, 113, 83, 71, 101, 61, 91, 11, 82, 91, 91, 80, 50, 40, 116, 81, 48, 99, 93, 20, 77, 68, 45, 27, 42, 39, 43, 15, 74, 96, 75, 61, 52, 76, 3, 17, 63, 51, 42, 41, 27, 34, 79, 39, 47, 45, 61, 27, 20, 21, 40, 28, 70, 86, 74, 81, 48, 101, 48, 90, 11, 62, 1, 91, 60, 75, 67, 70, 94, 101, 46, 63, 47, 40, 30, 53, 108, 47, 78, 100, 79, 78, 63, 64, 53, 83, 91, 36, 104, 16, 23, 79, 75, 81, 30, 59, 99, 100, 39, 96, 99, 35, 53, 76, 12, 22, 26, 34, 91, 79
              |67, 34, 76, 30, 77, 68, 70, 95, 85, 71, 73, 30, 59, 24, 90, 69, 22, 58, 34, 63, 37, 69, 8, 21, 38, 76, 68, 80, 66, 82, 75, 22, 63, 37, 86, 42, 68, 103, 57, 77, 39, 59, 59, 91, 21, 53, 53, 86, 79, 29, 26, 83, 72, 59, 19, 103, 48, 55, 37, 9, 65, 27, 8, 60, 36, 52, 88, 44, 76, 47, 53, 77, 21, 104, 15, 82, 41, 35, 80, 64, 12, 94, 56, 34, 60, 37, 64, 92, 12, 101, 84, 104, 71, 88, 98, 38, 66, 21, 62, 63, 89, 80, 19, 48, 108, 60, 64, 88, 65, 26, 86, 87, 19, 27, 45, 57, 66, 39, 49, 74, 55, 60, 23, 87, 30, 16, 43, 51, 63, 16, 32, 5, 65, 60, 22, 51, 33, 17, 22, 29, 36, 29, 91, 71, 80, 79, 55, 84, 52, 89, 24, 56, 31, 87, 68, 53, 51, 61, 93, 83, 21, 36, 63, 35, 41, 38, 98, 65, 88, 88, 63, 73, 52, 80, 56, 80, 63, 55, 95, 18, 16, 57, 84, 52, 30, 47, 81, 98, 62, 93, 95, 43, 61, 88, 24, 39, 25, 56, 92, 70
              |81, 64, 49, 74, 42, 32, 13, 13, 69, 19, 72, 63, 49, 91, 15, 22, 85, 30, 67, 60, 77, 23, 83, 102, 61, 17, 24, 42, 44, 56, 32, 85, 25, 74, 31, 72, 16, 22, 80, 14, 64, 61, 26, 16, 61, 30, 52, 7, 40, 91, 85, 17, 44, 55, 63, 23, 69, 34, 48, 91, 58, 58, 76, 41, 59, 65, 72, 48, 35, 42, 59, 47, 66, 27, 68, 28, 46, 76, 53, 73, 80, 26, 31, 53, 23, 55, 31, 72, 70, 19, 14, 25, 17, 60, 16, 55, 62, 88, 44, 79, 11, 16, 80, 51, 28, 44, 56, 17, 75, 101, 41, 65, 69, 62, 47, 63, 73, 77, 57, 52, 44, 28, 73, 45, 90, 90, 48, 37, 68, 69, 61, 78, 27, 67, 65, 46, 69, 68, 70, 67, 49, 108, 73, 26, 32, 10, 43, 36, 42, 14, 93, 27, 87, 6, 40, 50, 36, 22, 16, 39, 65, 66, 58, 50, 60, 45, 23, 61, 42, 19, 30, 10, 31, 58, 37, 9, 79, 66, 17, 91, 95, 49, 41, 74, 59, 36, 38, 18, 72, 11, 13, 54, 42, 48, 93, 68, 103, 71, 20, 15
              |77, 44, 90, 42, 92, 82, 85, 110, 94, 87, 85, 41, 73, 22, 105, 85, 24, 74, 47, 72, 42, 83, 16, 7, 48, 91, 83, 95, 78, 93, 90, 24, 77, 48, 101, 54, 83, 119, 67, 91, 52, 72, 73, 106, 37, 68, 64, 101, 92, 27, 28, 97, 87, 69, 35, 119, 56, 70, 52, 9, 78, 43, 21, 75, 48, 65, 96, 59, 92, 61, 63, 92, 36, 120, 30, 96, 56, 45, 91, 71, 20, 109, 70, 49, 75, 52, 77, 101, 27, 116, 99, 120, 87, 98, 113, 53, 79, 21, 77, 73, 103, 94, 29, 60, 123, 75, 74, 104, 76, 17, 99, 96, 34, 39, 58, 66, 73, 45, 63, 88, 70, 75, 35, 99, 29, 15, 58, 65, 71, 31, 44, 21, 80, 68, 37, 64, 46, 30, 32, 39, 51, 16, 99, 87, 94, 94, 68, 99, 66, 104, 21, 71, 32, 102, 81, 67, 67, 76, 108, 98, 36, 49, 73, 49, 51, 54, 113, 74, 101, 104, 79, 88, 67, 90, 70, 95, 73, 64, 111, 16, 9, 72, 97, 63, 43, 62, 96, 113, 69, 108, 110, 55, 74, 100, 20, 47, 12, 63, 107, 85
              |96, 80, 62, 92, 54, 43, 30, 6, 75, 35, 86, 80, 65, 108, 16, 38, 102, 48, 85, 71, 92, 37, 101, 120, 77, 28, 40, 53, 55, 61, 45, 102, 40, 92, 40, 90, 33, 12, 96, 26, 82, 77, 43, 15, 79, 48, 65, 15, 47, 108, 102, 24, 58, 67, 81, 14, 82, 52, 66, 109, 73, 76, 94, 57, 75, 82, 77, 66, 48, 58, 72, 59, 85, 21, 86, 34, 64, 94, 59, 84, 98, 30, 47, 72, 40, 73, 44, 76, 89, 1, 20, 17, 34, 64, 3, 73, 77, 105, 60, 95, 14, 25, 98, 65, 17, 60, 67, 24, 90, 118, 44, 70, 87, 79, 62, 75, 83, 92, 74, 66, 61, 43, 92, 48, 106, 107, 66, 53, 79, 88, 77, 96, 44, 79, 83, 60, 87, 86, 87, 83, 66, 125, 78, 41, 38, 23, 57, 46, 56, 16, 110, 45, 103, 14, 50, 67, 55, 41, 12, 49, 84, 84, 69, 67, 75, 64, 23, 72, 45, 26, 47, 28, 49, 64, 51, 21, 95, 79, 17, 109, 113, 65, 45, 91, 76, 55, 49, 6, 84, 8, 6, 69, 54, 51, 110, 84, 121, 84, 18, 33
              |97, 16, 86, 67, 82, 31, 49, 70, 35, 62, 97, 20, 73, 42, 59, 62, 37, 56, 65, 12, 21, 38, 45, 60, 13, 46, 62, 84, 21, 33, 74, 37, 35, 73, 82, 75, 45, 82, 90, 48, 67, 81, 37, 60, 37, 45, 9, 60, 35, 40, 35, 50, 80, 9, 42, 83, 9, 56, 46, 59, 83, 47, 42, 68, 15, 78, 37, 58, 78, 22, 3, 85, 51, 87, 41, 44, 50, 72, 31, 17, 40, 83, 30, 51, 41, 57, 30, 42, 42, 75, 54, 85, 61, 38, 71, 58, 86, 42, 72, 93, 60, 49, 63, 11, 88, 70, 14, 75, 93, 54, 42, 36, 52, 25, 17, 7, 19, 20, 70, 86, 66, 33, 61, 41, 38, 46, 56, 26, 14, 49, 19, 50, 61, 11, 51, 15, 66, 35, 29, 21, 26, 62, 40, 67, 40, 52, 17, 83, 19, 59, 44, 40, 34, 62, 25, 68, 53, 49, 63, 84, 51, 66, 13, 28, 10, 43, 83, 15, 43, 76, 63, 52, 45, 30, 24, 53, 93, 8, 77, 46, 53, 71, 40, 84, 23, 44, 82, 69, 16, 67, 69, 12, 20, 41, 45, 13, 59, 12, 59, 56
              |108, 26, 96, 77, 92, 36, 56, 76, 27, 71, 107, 30, 83, 47, 64, 71, 43, 66, 76, 9, 25, 44, 53, 66, 23, 52, 72, 94, 25, 30, 84, 43, 43, 83, 91, 86, 52, 88, 101, 54, 78, 91, 46, 64, 48, 55, 17, 66, 36, 43, 40, 56, 91, 12, 52, 90, 11, 66, 57, 67, 93, 58, 51, 78, 25, 89, 29, 69, 87, 32, 9, 95, 62, 94, 50, 47, 61, 82, 29, 7, 48, 91, 39, 62, 50, 68, 37, 34, 51, 80, 59, 92, 70, 33, 77, 69, 97, 47, 82, 104, 66, 54, 72, 21, 94, 80, 13, 82, 104, 58, 42, 30, 63, 34, 28, 5, 8, 23, 81, 96, 76, 41, 71, 41, 41, 52, 67, 36, 4, 59, 29, 59, 71, 1, 62, 24, 76, 44, 37, 30, 37, 66, 32, 77, 43, 58, 25, 93, 28, 64, 49, 49, 37, 68, 29, 79, 64, 58, 68, 94, 61, 76, 11, 39, 21, 54, 90, 9, 43, 84, 73, 59, 55, 26, 32, 59, 104, 4, 85, 52, 59, 81, 40, 94, 33, 54, 92, 74, 5, 72, 75, 22, 26, 40, 50, 20, 64, 5, 63, 65
              |65, 69, 31, 64, 23, 46, 23, 26, 84, 8, 54, 67, 34, 93, 34, 10, 86, 21, 57, 71, 82, 36, 82, 100, 66, 33, 11, 24, 57, 71, 14, 86, 35, 63, 14, 60, 27, 28, 65, 30, 53, 46, 32, 34, 59, 28, 61, 25, 56, 93, 88, 35, 27, 66, 60, 26, 77, 25, 42, 87, 41, 52, 75, 26, 64, 51, 87, 38, 17, 48, 69, 29, 60, 25, 65, 45, 39, 65, 69, 84, 80, 15, 39, 46, 28, 46, 43, 88, 68, 31, 32, 26, 9, 76, 30, 46, 46, 89, 29, 63, 29, 33, 72, 58, 30, 29, 68, 10, 59, 101, 58, 81, 63, 64, 53, 73, 84, 83, 44, 35, 31, 37, 66, 62, 93, 90, 39, 43, 79, 64, 64, 74, 15, 78, 59, 54, 59, 68, 72, 70, 51, 107, 89, 10, 48, 27, 53, 18, 50, 33, 94, 30, 90, 24, 54, 37, 28, 21, 34, 21, 60, 55, 70, 51, 66, 41, 19, 73, 60, 9, 17, 20, 29, 73, 46, 27, 63, 76, 18, 91, 94, 34, 58, 60, 61, 33, 20, 34, 83, 27, 27, 60, 53, 65, 94, 74, 102, 81, 39, 13
              |72, 36, 52, 52, 47, 21, 16, 41, 57, 26, 67, 35, 42, 62, 35, 26, 56, 21, 47, 40, 49, 16, 55, 73, 33, 22, 26, 49, 29, 47, 39, 56, 10, 56, 46, 55, 14, 51, 67, 22, 46, 52, 4, 36, 33, 11, 28, 32, 35, 62, 56, 29, 46, 34, 36, 51, 43, 23, 24, 64, 52, 33, 48, 35, 31, 53, 60, 32, 42, 14, 36, 51, 41, 54, 40, 31, 25, 56, 44, 52, 51, 48, 7, 31, 6, 35, 16, 62, 42, 47, 30, 53, 25, 52, 44, 36, 57, 59, 39, 69, 34, 26, 55, 25, 56, 38, 38, 40, 66, 72, 40, 55, 43, 33, 19, 40, 52, 50, 44, 53, 35, 9, 50, 43, 61, 61, 30, 10, 47, 43, 32, 51, 26, 46, 40, 21, 49, 39, 41, 38, 20, 79, 63, 31, 31, 25, 21, 47, 17, 35, 64, 4, 58, 33, 27, 39, 22, 13, 38, 49, 40, 47, 39, 21, 32, 21, 49, 42, 43, 41, 28, 19, 11, 47, 14, 26, 69, 43, 44, 62, 66, 40, 39, 61, 30, 14, 47, 44, 50, 39, 41, 27, 23, 45, 64, 41, 75, 48, 38, 21
              |48, 59, 22, 45, 18, 48, 29, 43, 87, 14, 40, 56, 16, 79, 47, 11, 73, 8, 38, 69, 72, 40, 67, 84, 58, 41, 9, 20, 58, 75, 12, 73, 36, 44, 23, 41, 31, 47, 47, 39, 34, 29, 31, 48, 45, 20, 57, 39, 62, 81, 75, 45, 17, 64, 45, 45, 70, 9, 27, 70, 26, 36, 60, 8, 55, 33, 89, 20, 14, 42, 65, 21, 43, 44, 50, 54, 22, 46, 72, 81, 65, 31, 37, 29, 27, 28, 44, 91, 53, 49, 43, 45, 15, 80, 47, 27, 30, 76, 12, 46, 43, 43, 54, 53, 49, 11, 67, 29, 42, 87, 65, 84, 45, 53, 47, 69, 81, 74, 25, 24, 12, 37, 47, 69, 80, 75, 21, 39, 76, 48, 54, 58, 5, 74, 42, 50, 40, 54, 59, 60, 41, 92, 92, 9, 55, 38, 50, 21, 46, 46, 80, 25, 78, 39, 55, 18, 13, 18, 48, 21, 43, 36, 69, 40, 58, 27, 37, 72, 67, 28, 2, 28, 19, 76, 44, 38, 46, 72, 37, 77, 79, 16, 64, 42, 50, 21, 19, 50, 79, 43, 44, 53, 53, 71, 81, 66, 87, 76, 52, 18
              |45, 44, 55, 9, 58, 67, 61, 84, 93, 57, 51, 40, 39, 46, 82, 55, 41, 43, 12, 70, 52, 64, 29, 42, 46, 70, 53, 60, 68, 87, 57, 41, 58, 16, 69, 20, 61, 91, 36, 70, 17, 37, 52, 83, 22, 42, 58, 77, 80, 49, 45, 76, 53, 65, 17, 90, 59, 39, 25, 26, 43, 15, 24, 42, 44, 30, 95, 26, 58, 47, 61, 57, 8, 90, 19, 79, 26, 14, 84, 75, 31, 78, 52, 18, 52, 18, 61, 99, 20, 90, 77, 91, 58, 92, 88, 19, 44, 42, 42, 41, 80, 73, 8, 52, 95, 41, 70, 74, 43, 48, 86, 93, 6, 35, 47, 66, 77, 55, 28, 53, 36, 56, 2, 88, 50, 38, 26, 49, 73, 10, 40, 17, 49, 70, 8, 53, 11, 26, 34, 40, 36, 50, 98, 55, 78, 71, 57, 65, 53, 81, 45, 47, 50, 77, 69, 32, 36, 49, 85, 64, 9, 14, 70, 34, 49, 27, 83, 73, 88, 73, 47, 63, 41, 85, 55, 72, 41, 65, 81, 40, 38, 37, 84, 31, 36, 36, 62, 89, 73, 83, 84, 48, 63, 89, 45, 51, 46, 68, 86, 57
              |24, 79, 12, 43, 20, 76, 57, 67, 114, 41, 13, 76, 15, 92, 74, 38, 87, 35, 37, 95, 91, 69, 77, 91, 79, 69, 36, 21, 85, 103, 28, 87, 64, 38, 35, 32, 60, 67, 28, 67, 32, 13, 58, 75, 59, 46, 82, 66, 90, 95, 90, 73, 15, 89, 57, 65, 93, 34, 43, 75, 6, 47, 70, 21, 76, 20, 117, 31, 25, 67, 89, 15, 50, 61, 62, 82, 38, 41, 100, 105, 77, 47, 64, 40, 55, 35, 72, 119, 64, 73, 71, 64, 42, 108, 72, 34, 6, 88, 17, 24, 70, 71, 55, 77, 68, 19, 93, 50, 18, 97, 94, 112, 52, 71, 71, 94, 106, 94, 21, 8, 22, 65, 49, 97, 95, 86, 33, 65, 101, 56, 74, 65, 34, 99, 49, 75, 39, 68, 75, 78, 62, 99, 119, 33, 84, 66, 76, 29, 72, 73, 92, 53, 94, 65, 83, 20, 35, 46, 75, 26, 50, 35, 95, 61, 80, 45, 55, 98, 96, 47, 31, 56, 45, 103, 70, 66, 24, 95, 57, 88, 87, 17, 93, 26, 70, 44, 25, 76, 103, 69, 69, 76, 80, 100, 93, 87, 95, 100, 79, 46
              |62, 39, 74, 26, 76, 72, 72, 96, 90, 72, 69, 35, 57, 30, 92, 69, 27, 58, 31, 67, 42, 71, 14, 23, 42, 79, 68, 78, 70, 87, 74, 27, 66, 33, 85, 38, 70, 104, 52, 79, 36, 56, 61, 93, 24, 54, 58, 88, 83, 34, 31, 85, 71, 63, 21, 104, 53, 54, 37, 8, 62, 27, 13, 59, 41, 49, 93, 43, 75, 50, 58, 75, 19, 104, 17, 85, 40, 30, 85, 69, 18, 93, 59, 33, 62, 36, 67, 97, 15, 102, 86, 105, 72, 92, 99, 36, 63, 26, 60, 58, 90, 82, 14, 52, 109, 58, 69, 89, 61, 30, 90, 92, 17, 31, 49, 62, 71, 45, 47, 71, 54, 63, 19, 91, 35, 21, 42, 54, 68, 15, 37, 6, 64, 65, 21, 55, 29, 21, 27, 34, 39, 32, 96, 71, 84, 81, 59, 82, 56, 91, 29, 57, 36, 89, 72, 51, 51, 62, 95, 82, 20, 33, 68, 38, 45, 39, 98, 70, 92, 89, 63, 74, 53, 85, 59, 82, 58, 61, 96, 23, 20, 55, 88, 48, 34, 48, 79, 100, 67, 94, 96, 47, 65, 92, 28, 44, 27, 62, 95, 70
              |96, 21, 82, 67, 77, 23, 42, 63, 33, 56, 94, 24, 69, 49, 51, 56, 44, 51, 65, 11, 28, 30, 50, 66, 17, 38, 57, 79, 14, 28, 69, 44, 28, 73, 76, 75, 38, 74, 89, 40, 67, 78, 31, 52, 38, 40, 2, 52, 28, 47, 42, 43, 76, 5, 43, 76, 16, 52, 44, 63, 80, 47, 46, 64, 18, 77, 36, 56, 72, 18, 6, 81, 52, 80, 43, 36, 48, 72, 26, 21, 45, 76, 24, 50, 35, 56, 22, 39, 44, 67, 46, 78, 55, 34, 64, 57, 84, 48, 68, 92, 52, 41, 65, 8, 80, 66, 10, 68, 91, 60, 35, 33, 54, 27, 14, 10, 22, 28, 68, 82, 62, 26, 62, 34, 45, 52, 54, 21, 17, 51, 22, 53, 56, 15, 52, 9, 66, 38, 33, 26, 25, 68, 39, 62, 33, 44, 10, 78, 13, 51, 51, 35, 41, 54, 18, 65, 50, 43, 55, 79, 51, 65, 11, 27, 14, 41, 76, 13, 36, 69, 58, 45, 40, 26, 17, 46, 92, 13, 70, 52, 59, 68, 33, 83, 25, 40, 77, 62, 20, 59, 61, 12, 12, 35, 52, 20, 65, 18, 51, 50
              |77, 13, 76, 42, 76, 50, 57, 82, 65, 63, 80, 10, 60, 22, 75, 62, 15, 52, 43, 42, 19, 52, 16, 34, 17, 61, 61, 78, 46, 62, 71, 15, 47, 49, 81, 52, 55, 92, 68, 62, 46, 64, 45, 76, 15, 43, 33, 72, 60, 22, 17, 67, 72, 38, 18, 92, 28, 49, 32, 29, 68, 27, 13, 59, 16, 59, 67, 44, 73, 30, 33, 77, 27, 94, 14, 65, 37, 47, 60, 44, 11, 86, 40, 34, 47, 39, 47, 72, 13, 88, 69, 94, 63, 67, 84, 40, 71, 18, 61, 73, 74, 64, 35, 28, 97, 59, 43, 79, 74, 31, 67, 66, 27, 8, 27, 37, 46, 22, 54, 75, 54, 45, 35, 68, 22, 20, 42, 35, 43, 23, 12, 21, 58, 39, 27, 32, 42, 7, 1, 9, 21, 38, 70, 65, 62, 65, 36, 80, 34, 74, 23, 43, 20, 74, 49, 54, 46, 50, 78, 80, 26, 44, 43, 21, 20, 32, 88, 44, 69, 80, 58, 60, 43, 59, 38, 66, 73, 35, 85, 21, 26, 58, 65, 62, 12, 38, 78, 84, 42, 79, 81, 23, 42, 68, 23, 19, 34, 36, 77, 60
              |55, 41, 39, 38, 36, 38, 26, 48, 73, 23, 51, 38, 26, 62, 47, 21, 56, 11, 32, 54, 54, 32, 51, 69, 40, 36, 20, 38, 45, 63, 30, 56, 26, 40, 40, 39, 26, 56, 51, 35, 31, 36, 20, 48, 28, 7, 41, 41, 52, 63, 58, 42, 33, 48, 29, 55, 53, 9, 12, 56, 37, 22, 43, 21, 37, 36, 76, 15, 32, 25, 48, 38, 30, 56, 34, 47, 10, 41, 60, 64, 49, 46, 23, 17, 18, 20, 32, 79, 37, 55, 42, 56, 23, 69, 52, 20, 41, 59, 25, 52, 45, 39, 44, 36, 60, 23, 52, 40, 50, 70, 57, 71, 33, 35, 30, 53, 65, 56, 27, 39, 19, 26, 37, 60, 63, 59, 14, 24, 60, 34, 36, 43, 17, 58, 29, 34, 34, 37, 41, 42, 23, 76, 79, 24, 48, 36, 35, 39, 31, 46, 63, 14, 60, 41, 43, 23, 6, 14, 49, 39, 30, 31, 53, 22, 40, 10, 49, 56, 59, 40, 17, 27, 6, 63, 30, 37, 52, 55, 47, 60, 63, 24, 55, 44, 32, 3, 37, 54, 63, 47, 49, 36, 39, 62, 64, 48, 71, 59, 51, 22
              |93, 92, 57, 95, 49, 58, 40, 17, 91, 38, 81, 91, 64, 119, 31, 40, 112, 51, 88, 85, 104, 50, 110, 128, 89, 42, 42, 48, 69, 77, 42, 112, 52, 94, 34, 91, 44, 5, 95, 40, 84, 76, 53, 31, 87, 55, 78, 28, 62, 118, 113, 39, 54, 81, 89, 5, 96, 55, 72, 116, 70, 82, 103, 57, 87, 82, 93, 69, 44, 69, 86, 54, 90, 9, 94, 49, 69, 96, 75, 98, 107, 22, 59, 77, 50, 77, 57, 92, 96, 15, 35, 5, 37, 80, 18, 76, 74, 116, 59, 92, 28, 39, 103, 78, 1, 60, 82, 21, 87, 128, 60, 86, 93, 89, 74, 89, 98, 105, 75, 61, 62, 55, 96, 64, 117, 117, 69, 64, 93, 94, 88, 103, 46, 93, 89, 73, 90, 95, 97, 94, 76, 134, 94, 41, 53, 35, 70, 40, 69, 31, 120, 54, 114, 26, 65, 68, 59, 48, 28, 43, 90, 86, 84, 76, 87, 70, 14, 87, 61, 23, 48, 37, 56, 80, 64, 34, 92, 93, 13, 118, 122, 65, 61, 90, 86, 61, 44, 22, 98, 21, 19, 81, 68, 67, 121, 96, 130, 98, 34, 38
              |120, 46, 102, 94, 96, 32, 55, 68, 7, 72, 117, 49, 92, 70, 54, 73, 66, 72, 91, 17, 48, 41, 75, 89, 42, 46, 74, 98, 22, 9, 87, 66, 43, 99, 91, 100, 51, 80, 114, 49, 92, 102, 49, 54, 65, 61, 28, 59, 23, 67, 63, 47, 96, 22, 69, 82, 34, 73, 69, 88, 102, 73, 72, 85, 44, 101, 10, 80, 90, 42, 26, 100, 79, 88, 69, 36, 72, 98, 10, 22, 70, 88, 43, 76, 52, 81, 36, 13, 71, 70, 51, 85, 71, 10, 67, 82, 107, 70, 90, 117, 57, 47, 91, 34, 86, 88, 16, 79, 115, 81, 26, 7, 80, 53, 40, 23, 21, 46, 93, 103, 85, 43, 89, 23, 65, 75, 78, 42, 20, 77, 48, 79, 75, 22, 78, 34, 92, 64, 58, 51, 51, 90, 13, 79, 32, 52, 31, 94, 35, 54, 72, 54, 61, 61, 24, 89, 72, 62, 57, 96, 78, 91, 16, 53, 39, 66, 85, 15, 26, 82, 78, 57, 61, 5, 36, 53, 117, 26, 79, 75, 82, 90, 25, 108, 51, 63, 95, 64, 24, 64, 66, 38, 27, 21, 73, 42, 87, 28, 52, 66
              |68, 18, 67, 35, 67, 48, 51, 76, 68, 55, 71, 13, 51, 30, 70, 54, 23, 43, 34, 45, 27, 48, 19, 38, 20, 56, 53, 69, 46, 63, 62, 23, 43, 41, 72, 44, 49, 86, 60, 57, 38, 55, 39, 71, 6, 36, 34, 67, 59, 31, 25, 63, 63, 40, 9, 86, 33, 41, 24, 30, 59, 18, 13, 50, 18, 51, 70, 35, 64, 27, 36, 68, 19, 87, 8, 62, 28, 40, 61, 49, 16, 78, 36, 25, 41, 30, 43, 74, 9, 82, 64, 87, 55, 69, 79, 31, 62, 26, 52, 64, 69, 60, 30, 28, 91, 50, 46, 72, 65, 38, 66, 69, 20, 9, 25, 40, 51, 30, 45, 66, 45, 40, 28, 67, 31, 26, 33, 31, 47, 16, 14, 18, 50, 44, 19, 31, 35, 4, 10, 14, 16, 44, 73, 57, 60, 60, 35, 71, 32, 69, 30, 37, 29, 68, 48, 45, 37, 43, 73, 71, 19, 36, 45, 15, 23, 23, 81, 47, 68, 72, 50, 54, 35, 61, 36, 61, 64, 39, 78, 28, 31, 49, 64, 54, 10, 31, 69, 79, 47, 74, 76, 24, 41, 68, 31, 25, 40, 42, 72, 52
              |77, 82, 41, 80, 33, 53, 32, 19, 90, 23, 65, 81, 48, 107, 32, 26, 101, 37, 72, 80, 95, 44, 97, 115, 79, 38, 27, 32, 65, 76, 26, 101, 45, 79, 18, 75, 36, 14, 79, 35, 69, 60, 44, 33, 74, 43, 72, 25, 61, 108, 102, 37, 38, 76, 76, 12, 88, 41, 58, 103, 54, 68, 90, 41, 77, 66, 92, 54, 28, 60, 80, 38, 76, 9, 81, 49, 55, 81, 74, 94, 95, 7, 50, 62, 40, 62, 51, 92, 83, 22, 33, 11, 23, 80, 23, 61, 58, 104, 43, 76, 28, 36, 88, 70, 15, 44, 77, 6, 71, 116, 61, 86, 78, 79, 65, 83, 93, 96, 59, 45, 46, 47, 81, 65, 107, 105, 54, 55, 88, 80, 78, 90, 31, 88, 75, 65, 75, 83, 86, 84, 65, 122, 94, 25, 52, 31, 63, 25, 61, 32, 108, 43, 104, 23, 61, 52, 44, 35, 31, 28, 75, 71, 79, 65, 78, 57, 3, 82, 62, 7, 33, 29, 43, 79, 57, 30, 76, 86, 6, 106, 109, 49, 61, 74, 75, 48, 28, 28, 93, 22, 21, 72, 62, 68, 109, 87, 118, 92, 37, 26
              |72, 48, 47, 59, 41, 24, 5, 29, 63, 17, 66, 47, 41, 75, 26, 18, 68, 19, 53, 48, 61, 15, 66, 85, 45, 16, 19, 42, 34, 50, 31, 68, 12, 61, 36, 60, 6, 39, 70, 14, 51, 53, 9, 27, 44, 14, 38, 21, 36, 74, 69, 21, 41, 43, 47, 39, 54, 22, 32, 74, 51, 42, 59, 33, 43, 55, 65, 35, 35, 26, 46, 45, 50, 42, 51, 28, 31, 62, 48, 61, 63, 36, 16, 38, 6, 41, 20, 67, 54, 36, 21, 41, 16, 55, 32, 41, 55, 72, 37, 70, 24, 18, 64, 36, 44, 36, 46, 28, 67, 84, 40, 60, 52, 45, 31, 50, 61, 62, 46, 49, 34, 14, 58, 43, 73, 73, 34, 21, 56, 53, 44, 61, 21, 55, 49, 31, 55, 51, 53, 50, 32, 91, 68, 24, 30, 15, 30, 39, 27, 25, 76, 10, 70, 21, 31, 40, 24, 9, 29, 41, 49, 52, 47, 33, 44, 29, 37, 50, 42, 30, 23, 7, 15, 51, 23, 16, 70, 53, 32, 74, 78, 40, 39, 64, 42, 20, 39, 33, 60, 27, 29, 38, 30, 46, 76, 53, 86, 58, 30, 10
              |81, 41, 58, 63, 52, 12, 12, 34, 51, 28, 76, 41, 50, 69, 26, 30, 63, 29, 58, 37, 53, 5, 64, 82, 38, 12, 30, 54, 23, 39, 43, 63, 1, 66, 48, 66, 8, 46, 77, 13, 57, 62, 7, 27, 43, 20, 28, 24, 25, 69, 63, 18, 52, 32, 46, 47, 45, 31, 35, 73, 61, 44, 57, 43, 36, 63, 54, 42, 47, 19, 36, 57, 52, 51, 50, 20, 36, 67, 36, 50, 60, 47, 9, 42, 9, 46, 8, 55, 52, 40, 20, 49, 27, 44, 36, 47, 65, 67, 47, 78, 25, 16, 66, 27, 51, 46, 34, 38, 76, 80, 30, 48, 54, 41, 23, 39, 50, 54, 54, 60, 44, 4, 61, 33, 67, 69, 40, 14, 45, 54, 38, 61, 32, 44, 51, 22, 60, 48, 49, 45, 28, 87, 56, 35, 21, 16, 20, 51, 18, 25, 71, 13, 64, 26, 20, 49, 31, 18, 29, 53, 51, 57, 36, 30, 36, 32, 46, 39, 32, 40, 34, 15, 21, 40, 13, 18, 78, 43, 41, 70, 75, 49, 29, 71, 37, 25, 51, 35, 49, 31, 33, 30, 19, 36, 72, 45, 83, 48, 28, 22
              |84, 55, 56, 72, 49, 21, 8, 20, 58, 24, 77, 55, 52, 83, 13, 26, 77, 31, 66, 49, 67, 13, 77, 95, 52, 6, 28, 50, 33, 45, 39, 77, 16, 74, 41, 72, 9, 32, 82, 3, 64, 65, 18, 14, 55, 27, 41, 10, 30, 83, 77, 9, 50, 44, 58, 33, 59, 35, 45, 86, 62, 54, 70, 44, 50, 67, 61, 48, 42, 33, 49, 54, 63, 38, 62, 19, 44, 75, 42, 62, 73, 37, 23, 51, 17, 54, 20, 61, 65, 25, 8, 35, 23, 49, 22, 54, 67, 81, 48, 82, 12, 6, 77, 41, 38, 47, 45, 27, 78, 94, 31, 54, 65, 55, 38, 52, 62, 68, 59, 58, 46, 18, 71, 35, 81, 83, 47, 28, 57, 65, 52, 73, 31, 57, 62, 36, 68, 62, 62, 59, 42, 101, 63, 32, 21, 2, 33, 45, 32, 12, 85, 22, 78, 12, 29, 52, 36, 21, 16, 47, 62, 65, 48, 43, 50, 42, 34, 50, 33, 30, 34, 8, 28, 47, 27, 4, 82, 56, 28, 84, 88, 52, 31, 76, 51, 33, 46, 22, 61, 17, 19, 44, 31, 38, 86, 59, 97, 61, 17, 18
              |57, 28, 58, 24, 59, 52, 51, 75, 77, 51, 60, 24, 41, 38, 71, 49, 32, 38, 23, 54, 38, 51, 24, 41, 30, 58, 48, 61, 53, 71, 55, 32, 45, 30, 66, 33, 49, 83, 49, 58, 27, 44, 40, 72, 6, 32, 42, 66, 64, 40, 35, 64, 54, 49, 2, 83, 44, 34, 16, 29, 49, 8, 17, 41, 28, 40, 79, 26, 57, 31, 45, 59, 9, 83, 7, 65, 21, 29, 68, 59, 23, 73, 38, 15, 41, 20, 47, 83, 10, 81, 65, 84, 51, 77, 78, 21, 51, 34, 43, 53, 69, 61, 21, 36, 87, 41, 54, 68, 54, 44, 71, 77, 10, 19, 31, 50, 61, 41, 34, 57, 36, 42, 18, 73, 40, 32, 24, 34, 57, 8, 24, 16, 44, 54, 8, 38, 24, 13, 21, 26, 20, 49, 82, 51, 64, 60, 41, 64, 38, 70, 38, 36, 39, 67, 54, 35, 31, 40, 74, 64, 8, 25, 54, 18, 33, 18, 77, 57, 73, 68, 43, 53, 32, 69, 40, 61, 53, 50, 75, 34, 36, 39, 69, 43, 20, 26, 61, 79, 57, 73, 75, 32, 47, 74, 38, 36, 44, 52, 74, 49
              |30, 57, 30, 22, 33, 63, 49, 67, 97, 38, 30, 53, 13, 68, 69, 35, 63, 26, 15, 76, 68, 57, 53, 67, 57, 60, 33, 35, 69, 88, 34, 63, 51, 20, 45, 16, 50, 71, 25, 59, 10, 14, 45, 70, 36, 32, 63, 62, 77, 71, 66, 66, 27, 70, 33, 70, 71, 22, 22, 52, 18, 23, 46, 18, 54, 11, 100, 10, 34, 48, 69, 31, 26, 68, 38, 72, 18, 22, 85, 85, 53, 55, 48, 17, 43, 11, 57, 103, 40, 73, 65, 70, 39, 93, 71, 10, 20, 64, 17, 27, 66, 63, 33, 58, 74, 16, 75, 53, 26, 73, 82, 96, 28, 48, 51, 74, 86, 71, 3, 27, 13, 51, 26, 85, 71, 62, 12, 48, 81, 32, 52, 41, 29, 79, 25, 57, 17, 44, 52, 55, 41, 76, 103, 34, 72, 59, 59, 40, 54, 68, 68, 39, 70, 62, 68, 7, 21, 36, 71, 39, 26, 13, 76, 39, 59, 24, 61, 79, 84, 52, 26, 49, 31, 87, 54, 60, 27, 75, 61, 64, 63, 11, 81, 19, 47, 27, 37, 74, 83, 67, 68, 56, 63, 87, 68, 64, 71, 79, 74, 41
              |44, 51, 60, 9, 64, 76, 70, 93, 101, 65, 52, 47, 44, 48, 91, 63, 45, 51, 16, 78, 57, 73, 31, 40, 54, 79, 61, 66, 77, 95, 64, 45, 67, 15, 75, 21, 70, 99, 34, 79, 21, 40, 61, 92, 30, 51, 66, 85, 88, 52, 49, 85, 58, 73, 25, 98, 66, 47, 33, 24, 47, 24, 28, 48, 51, 32, 103, 34, 64, 55, 69, 62, 16, 97, 26, 88, 34, 12, 93, 82, 34, 85, 61, 27, 61, 26, 70, 107, 25, 99, 86, 98, 66, 101, 96, 26, 47, 44, 48, 40, 89, 82, 4, 61, 102, 47, 78, 82, 43, 48, 95, 101, 15, 42, 56, 74, 84, 60, 33, 57, 43, 65, 7, 97, 53, 40, 34, 58, 80, 17, 47, 20, 57, 77, 17, 62, 14, 33, 40, 47, 45, 49, 106, 62, 87, 80, 66, 71, 62, 90, 47, 56, 54, 86, 78, 38, 44, 58, 94, 70, 17, 18, 78, 42, 56, 36, 91, 81, 97, 81, 55, 72, 50, 93, 64, 81, 40, 73, 89, 41, 38, 42, 93, 30, 43, 45, 68, 98, 80, 91, 93, 56, 71, 98, 47, 57, 45, 75, 95, 66
              |129, 52, 112, 102, 106, 42, 65, 78, 4, 83, 127, 56, 102, 73, 64, 84, 70, 82, 99, 24, 51, 52, 80, 92, 48, 56, 85, 108, 32, 18, 97, 70, 54, 107, 102, 109, 61, 90, 123, 59, 101, 111, 59, 64, 72, 71, 36, 69, 33, 69, 66, 57, 106, 29, 77, 92, 38, 83, 78, 93, 112, 81, 77, 95, 51, 110, 4, 89, 101, 51, 33, 110, 86, 98, 76, 46, 81, 106, 20, 23, 74, 99, 53, 84, 63, 90, 46, 9, 77, 80, 61, 95, 81, 16, 77, 91, 116, 73, 100, 126, 67, 57, 98, 42, 96, 98, 24, 90, 125, 84, 35, 10, 87, 60, 48, 28, 21, 49, 102, 113, 94, 53, 96, 32, 67, 79, 87, 52, 23, 85, 55, 85, 85, 26, 86, 42, 100, 70, 64, 56, 59, 92, 6, 90, 42, 63, 40, 105, 45, 64, 75, 64, 63, 71, 35, 98, 82, 72, 67, 107, 85, 99, 24, 61, 46, 75, 96, 21, 35, 92, 88, 68, 71, 15, 46, 64, 126, 30, 89, 79, 86, 100, 34, 117, 58, 73, 105, 73, 25, 74, 76, 45, 37, 29, 76, 47, 90, 30, 61, 76
              |61, 31, 49, 38, 46, 34, 30, 54, 66, 32, 59, 28, 35, 53, 50, 30, 47, 21, 33, 46, 44, 31, 42, 61, 30, 37, 30, 48, 39, 58, 40, 47, 25, 41, 50, 42, 28, 62, 55, 37, 33, 43, 19, 51, 20, 12, 33, 45, 48, 54, 48, 44, 43, 40, 22, 62, 43, 19, 10, 50, 45, 18, 35, 30, 27, 42, 69, 21, 42, 18, 39, 48, 26, 64, 26, 46, 13, 41, 55, 55, 40, 55, 20, 17, 20, 22, 29, 72, 29, 60, 44, 64, 32, 64, 57, 22, 48, 49, 34, 57, 48, 41, 40, 28, 67, 32, 45, 48, 56, 61, 54, 65, 28, 25, 21, 44, 56, 46, 33, 48, 28, 23, 35, 56, 53, 50, 18, 17, 51, 28, 26, 37, 27, 49, 25, 26, 34, 28, 32, 32, 13, 67, 72, 34, 46, 39, 28, 49, 24, 49, 54, 15, 51, 46, 38, 30, 16, 20, 53, 49, 25, 33, 46, 12, 31, 7, 58, 49, 56, 49, 27, 32, 11, 57, 24, 40, 57, 46, 54, 51, 54, 33, 52, 49, 22, 7, 47, 58, 54, 52, 54, 27, 33, 58, 54, 38, 63, 50, 53, 29
              |90, 23, 93, 54, 92, 63, 73, 98, 68, 80, 95, 23, 76, 6, 89, 79, 4, 69, 56, 48, 16, 67, 17, 25, 27, 75, 78, 95, 56, 69, 88, 4, 62, 61, 98, 65, 70, 108, 81, 76, 61, 79, 60, 90, 31, 60, 43, 88, 70, 5, 1, 81, 88, 46, 33, 108, 30, 66, 49, 30, 84, 43, 21, 76, 28, 74, 70, 60, 90, 45, 39, 93, 40, 111, 28, 77, 54, 59, 67, 44, 14, 103, 55, 50, 63, 55, 60, 75, 26, 103, 84, 110, 80, 74, 100, 56, 86, 6, 78, 86, 89, 79, 44, 39, 113, 76, 50, 96, 88, 18, 78, 71, 40, 24, 40, 41, 46, 18, 69, 91, 71, 59, 46, 77, 5, 12, 59, 49, 45, 36, 25, 29, 75, 42, 41, 44, 56, 22, 17, 19, 37, 26, 73, 82, 74, 80, 48, 97, 47, 89, 8, 60, 6, 89, 60, 70, 63, 67, 93, 97, 40, 58, 49, 37, 30, 49, 105, 49, 79, 97, 75, 76, 59, 66, 52, 81, 86, 38, 101, 11, 19, 74, 75, 75, 27, 56, 95, 99, 42, 95, 97, 35, 53, 77, 9, 23, 23, 37, 91, 76
              |68, 45, 45, 54, 39, 26, 10, 34, 64, 17, 62, 43, 37, 71, 31, 17, 64, 16, 48, 48, 58, 18, 62, 80, 42, 21, 18, 41, 35, 52, 30, 64, 14, 56, 37, 55, 10, 43, 65, 19, 46, 49, 8, 32, 39, 9, 37, 26, 39, 71, 65, 26, 39, 43, 42, 43, 52, 18, 27, 69, 48, 37, 55, 30, 40, 51, 67, 31, 34, 24, 45, 43, 45, 45, 46, 32, 26, 57, 49, 60, 59, 39, 15, 33, 4, 36, 21, 69, 49, 40, 26, 45, 16, 58, 37, 36, 52, 67, 34, 66, 29, 23, 59, 34, 48, 33, 46, 31, 63, 80, 43, 61, 47, 42, 29, 49, 61, 59, 42, 46, 31, 14, 53, 46, 70, 69, 29, 19, 56, 48, 41, 56, 18, 54, 44, 30, 50, 47, 49, 47, 28, 86, 69, 23, 33, 20, 29, 39, 26, 30, 72, 6, 67, 26, 33, 36, 19, 5, 34, 40, 44, 47, 47, 28, 41, 24, 40, 50, 45, 32, 21, 12, 10, 53, 22, 21, 66, 52, 36, 70, 74, 36, 42, 59, 38, 15, 39, 38, 59, 32, 34, 36, 31, 49, 72, 50, 82, 57, 35, 11
              |43, 54, 61, 11, 65, 79, 73, 95, 104, 68, 52, 50, 45, 50, 94, 65, 47, 54, 18, 81, 60, 76, 34, 41, 57, 82, 63, 67, 80, 98, 66, 47, 70, 15, 77, 21, 72, 101, 33, 81, 23, 40, 64, 95, 33, 54, 69, 88, 92, 54, 51, 88, 59, 76, 28, 100, 69, 50, 36, 25, 47, 27, 31, 50, 54, 33, 106, 36, 66, 58, 72, 63, 19, 99, 29, 91, 37, 12, 96, 85, 37, 87, 64, 30, 64, 28, 73, 110, 28, 102, 89, 101, 68, 104, 99, 29, 47, 46, 50, 39, 92, 85, 7, 64, 105, 48, 81, 84, 43, 50, 98, 104, 18, 45, 59, 77, 87, 63, 34, 58, 44, 68, 10, 100, 55, 41, 36, 61, 83, 20, 50, 22, 59, 80, 20, 65, 16, 36, 43, 50, 48, 50, 110, 64, 90, 83, 69, 73, 65, 93, 49, 59, 56, 89, 81, 40, 47, 61, 97, 71, 20, 20, 81, 46, 59, 39, 93, 84, 100, 83, 57, 75, 53, 97, 67, 84, 39, 76, 92, 43, 40, 44, 96, 30, 47, 48, 69, 101, 83, 94, 96, 60, 74, 101, 49, 60, 46, 78, 98, 68
              |98, 25, 83, 71, 78, 21, 41, 61, 29, 56, 96, 28, 71, 53, 49, 57, 48, 53, 68, 9, 32, 29, 54, 70, 21, 36, 57, 80, 11, 24, 70, 48, 28, 76, 76, 78, 37, 73, 92, 39, 70, 81, 31, 50, 42, 41, 5, 51, 24, 50, 46, 41, 77, 3, 47, 74, 19, 53, 47, 67, 82, 50, 50, 66, 22, 79, 32, 58, 73, 20, 8, 82, 56, 79, 47, 33, 50, 75, 22, 21, 49, 76, 25, 53, 35, 59, 21, 36, 48, 65, 44, 77, 55, 30, 62, 59, 86, 52, 70, 95, 51, 39, 68, 11, 79, 68, 7, 67, 94, 64, 31, 30, 57, 31, 17, 10, 21, 31, 71, 84, 64, 26, 66, 31, 48, 56, 56, 22, 16, 55, 26, 57, 57, 15, 55, 11, 69, 42, 37, 30, 28, 72, 35, 62, 30, 43, 10, 78, 14, 49, 55, 35, 44, 53, 15, 67, 51, 44, 53, 80, 55, 68, 8, 30, 18, 44, 75, 11, 33, 69, 59, 44, 42, 22, 17, 44, 95, 14, 69, 56, 63, 70, 29, 86, 29, 42, 78, 60, 20, 57, 60, 16, 10, 31, 56, 24, 69, 19, 49, 50
              |83, 61, 53, 74, 45, 27, 10, 15, 64, 21, 75, 60, 51, 88, 12, 24, 82, 31, 67, 55, 73, 19, 81, 100, 57, 12, 26, 46, 39, 50, 36, 82, 21, 75, 36, 73, 13, 26, 82, 9, 65, 64, 23, 13, 59, 29, 47, 5, 35, 88, 82, 12, 48, 50, 62, 27, 64, 35, 47, 89, 61, 57, 74, 43, 56, 67, 66, 49, 39, 38, 55, 51, 65, 32, 66, 23, 46, 76, 48, 68, 78, 31, 28, 53, 20, 55, 26, 67, 69, 21, 9, 29, 20, 55, 17, 55, 65, 86, 47, 81, 9, 11, 79, 47, 32, 46, 51, 22, 77, 98, 36, 60, 68, 59, 43, 58, 68, 74, 59, 56, 46, 24, 73, 40, 87, 87, 48, 33, 63, 68, 57, 76, 29, 63, 64, 42, 69, 66, 67, 64, 46, 105, 68, 29, 27, 5, 39, 40, 38, 11, 90, 25, 83, 6, 35, 52, 37, 22, 14, 43, 65, 66, 54, 47, 56, 44, 28, 56, 38, 24, 33, 8, 30, 53, 33, 4, 81, 62, 22, 89, 93, 51, 36, 76, 56, 35, 42, 18, 67, 12, 14, 50, 37, 43, 91, 65, 101, 67, 17, 16
              |81, 54, 53, 69, 46, 22, 5, 21, 60, 21, 74, 54, 49, 82, 16, 23, 76, 28, 63, 49, 67, 13, 75, 93, 51, 9, 25, 47, 34, 47, 36, 76, 15, 71, 38, 69, 6, 32, 79, 6, 61, 61, 16, 17, 53, 24, 41, 11, 32, 81, 76, 12, 48, 45, 56, 33, 58, 32, 42, 84, 59, 52, 68, 41, 49, 64, 63, 45, 40, 32, 49, 51, 60, 37, 60, 21, 41, 72, 44, 63, 71, 35, 21, 48, 14, 51, 20, 63, 63, 27, 11, 35, 20, 51, 23, 51, 64, 79, 45, 79, 14, 9, 74, 40, 38, 44, 46, 26, 75, 92, 34, 56, 62, 53, 37, 52, 62, 67, 56, 55, 43, 17, 68, 37, 80, 81, 44, 27, 57, 63, 51, 71, 28, 57, 59, 35, 65, 60, 61, 57, 40, 99, 65, 29, 24, 5, 33, 42, 31, 15, 83, 19, 77, 13, 30, 49, 33, 18, 19, 45, 59, 62, 48, 41, 49, 39, 33, 51, 36, 28, 31, 5, 25, 49, 26, 6, 79, 56, 28, 82, 87, 48, 33, 73, 50, 30, 44, 24, 62, 18, 21, 44, 31, 40, 84, 58, 95, 61, 20, 15
              |88, 77, 53, 85, 45, 43, 26, 4, 78, 27, 77, 77, 57, 105, 18, 30, 98, 41, 78, 71, 90, 35, 97, 115, 74, 28, 32, 45, 55, 64, 37, 98, 38, 85, 32, 82, 29, 9, 88, 25, 75, 69, 39, 19, 74, 43, 64, 13, 49, 104, 99, 25, 49, 67, 76, 10, 81, 45, 60, 104, 64, 70, 90, 49, 72, 74, 80, 59, 39, 55, 72, 51, 79, 16, 81, 36, 58, 87, 62, 84, 93, 22, 45, 65, 36, 66, 43, 80, 84, 8, 21, 13, 27, 68, 8, 66, 69, 102, 52, 86, 15, 25, 92, 64, 15, 52, 68, 15, 82, 115, 48, 73, 81, 76, 60, 75, 84, 91, 66, 57, 53, 41, 85, 52, 103, 103, 59, 50, 79, 82, 74, 91, 36, 79, 77, 59, 80, 81, 83, 80, 62, 121, 81, 33, 40, 21, 56, 38, 55, 18, 106, 40, 100, 11, 51, 59, 48, 35, 16, 41, 78, 76, 70, 63, 73, 58, 15, 73, 49, 18, 39, 23, 44, 67, 50, 20, 86, 78, 9, 105, 108, 57, 48, 83, 72, 49, 41, 13, 84, 8, 7, 67, 54, 55, 107, 82, 117, 83, 22, 26
              |63, 34, 72, 26, 73, 67, 68, 92, 85, 68, 69, 30, 55, 28, 87, 66, 25, 54, 30, 63, 38, 66, 11, 25, 38, 74, 64, 76, 65, 82, 71, 25, 61, 34, 82, 38, 66, 100, 53, 74, 35, 55, 56, 88, 19, 50, 53, 83, 78, 32, 29, 80, 68, 58, 16, 100, 49, 51, 33, 12, 60, 23, 9, 56, 36, 48, 88, 40, 72, 45, 53, 73, 17, 101, 12, 80, 37, 31, 80, 65, 14, 90, 54, 30, 58, 33, 62, 92, 10, 98, 82, 101, 68, 87, 95, 34, 62, 24, 58, 59, 86, 77, 16, 47, 105, 56, 64, 85, 61, 30, 85, 87, 15, 26, 44, 58, 67, 41, 45, 70, 51, 58, 19, 86, 33, 20, 39, 49, 64, 12, 32, 1, 61, 60, 18, 50, 29, 16, 22, 30, 35, 33, 91, 67, 79, 77, 54, 80, 51, 87, 27, 53, 34, 84, 67, 48, 47, 57, 90, 79, 17, 32, 63, 33, 41, 35, 94, 65, 87, 85, 60, 70, 49, 80, 54, 78, 59, 56, 92, 22, 21, 53, 83, 48, 29, 44, 77, 96, 63, 90, 92, 42, 60, 87, 27, 40, 29, 57, 90, 66
              |54, 66, 22, 54, 15, 50, 28, 36, 89, 10, 44, 64, 23, 88, 43, 8, 82, 15, 47, 73, 79, 41, 75, 93, 64, 40, 7, 16, 60, 76, 5, 82, 38, 53, 14, 49, 31, 38, 54, 37, 43, 35, 33, 44, 53, 25, 62, 34, 62, 89, 83, 43, 17, 67, 54, 37, 76, 17, 36, 79, 31, 45, 68, 16, 62, 40, 91, 29, 9, 47, 69, 20, 52, 35, 59, 52, 31, 55, 73, 85, 74, 22, 40, 38, 29, 37, 46, 93, 62, 42, 40, 37, 11, 81, 41, 36, 35, 84, 18, 52, 39, 40, 63, 58, 41, 18, 71, 20, 48, 95, 65, 85, 54, 60, 52, 74, 86, 81, 33, 25, 21, 39, 56, 68, 88, 84, 30, 43, 80, 57, 61, 67, 8, 79, 51, 54, 49, 62, 67, 67, 48, 100, 93, 2, 55, 35, 54, 14, 51, 42, 89, 29, 86, 34, 57, 26, 21, 20, 43, 15, 52, 45, 72, 47, 64, 35, 28, 75, 67, 19, 9, 26, 25, 77, 47, 35, 52, 76, 28, 85, 87, 23, 64, 49, 58, 28, 14, 44, 84, 37, 38, 59, 56, 71, 89, 72, 96, 81, 48, 16
              |95, 50, 69, 78, 63, 10, 20, 32, 44, 38, 89, 51, 64, 79, 19, 40, 73, 42, 72, 36, 60, 9, 75, 93, 46, 9, 41, 64, 21, 30, 53, 73, 15, 81, 55, 80, 17, 44, 91, 12, 72, 75, 22, 19, 56, 34, 32, 22, 15, 77, 72, 10, 64, 33, 60, 45, 49, 45, 49, 86, 74, 58, 69, 56, 45, 77, 46, 56, 56, 30, 39, 67, 66, 51, 62, 6, 50, 81, 28, 50, 71, 51, 21, 57, 23, 61, 13, 46, 65, 35, 14, 48, 36, 35, 32, 61, 78, 77, 60, 92, 21, 10, 80, 33, 50, 59, 33, 42, 89, 90, 17, 40, 68, 51, 33, 41, 49, 60, 68, 71, 57, 17, 75, 21, 76, 80, 55, 26, 45, 67, 48, 74, 43, 45, 65, 29, 74, 60, 59, 54, 40, 97, 48, 45, 7, 15, 25, 59, 26, 18, 80, 27, 72, 24, 16, 62, 45, 31, 22, 62, 65, 72, 35, 42, 43, 46, 48, 38, 19, 45, 46, 22, 35, 32, 21, 16, 92, 45, 42, 81, 86, 62, 16, 85, 48, 39, 60, 29, 49, 28, 30, 38, 21, 24, 81, 52, 93, 50, 18, 31
              |72, 74, 38, 72, 29, 47, 25, 19, 85, 16, 61, 73, 42, 100, 30, 18, 93, 29, 65, 74, 87, 38, 89, 108, 72, 33, 20, 29, 59, 72, 21, 93, 38, 72, 16, 68, 29, 19, 73, 30, 62, 54, 36, 30, 67, 35, 65, 22, 56, 100, 94, 33, 34, 69, 68, 18, 81, 33, 50, 95, 49, 60, 82, 35, 69, 60, 88, 47, 24, 53, 73, 35, 69, 17, 73, 44, 47, 74, 69, 87, 87, 10, 43, 55, 33, 55, 45, 88, 76, 24, 30, 18, 16, 76, 23, 54, 53, 96, 37, 71, 26, 32, 81, 63, 22, 37, 71, 1, 66, 108, 57, 81, 71, 71, 58, 76, 87, 89, 52, 41, 40, 40, 74, 61, 99, 97, 47, 48, 82, 72, 70, 82, 24, 81, 67, 58, 68, 75, 78, 76, 57, 114, 89, 19, 48, 26, 57, 22, 54, 29, 101, 35, 96, 20, 55, 45, 37, 27, 29, 25, 68, 64, 73, 57, 71, 49, 11, 76, 59, 3, 26, 22, 36, 74, 50, 26, 71, 80, 9, 98, 101, 43, 57, 68, 68, 40, 25, 28, 86, 21, 21, 65, 56, 64, 101, 80, 110, 85, 35, 18
              |54, 82, 18, 64, 11, 64, 41, 41, 103, 24, 42, 79, 30, 103, 52, 23, 97, 31, 57, 88, 95, 55, 90, 107, 80, 52, 23, 9, 75, 90, 11, 97, 53, 62, 6, 57, 45, 38, 58, 49, 52, 39, 49, 52, 68, 41, 77, 43, 75, 104, 99, 54, 17, 83, 68, 36, 92, 33, 50, 92, 33, 59, 83, 26, 78, 46, 105, 42, 9, 63, 85, 15, 65, 31, 73, 64, 46, 64, 87, 101, 89, 17, 56, 52, 45, 49, 60, 107, 76, 46, 50, 34, 25, 95, 45, 48, 36, 99, 25, 54, 47, 52, 75, 74, 38, 27, 86, 22, 49, 110, 77, 99, 67, 76, 68, 90, 101, 97, 41, 22, 31, 54, 68, 81, 104, 98, 43, 59, 96, 70, 77, 80, 24, 95, 64, 70, 59, 77, 83, 83, 64, 115, 108, 18, 67, 46, 70, 2, 66, 51, 104, 45, 102, 42, 72, 35, 36, 36, 51, 4, 65, 55, 88, 63, 80, 50, 25, 91, 79, 20, 24, 39, 41, 92, 63, 46, 54, 92, 29, 100, 102, 31, 77, 54, 74, 44, 6, 50, 100, 44, 43, 75, 71, 84, 104, 88, 110, 97, 57, 30
              |9, 84, 28, 39, 36, 88, 71, 83, 124, 55, 6, 80, 26, 92, 89, 53, 88, 48, 35, 104, 95, 81, 76, 88, 85, 83, 51, 37, 95, 114, 44, 88, 76, 32, 51, 27, 73, 83, 16, 81, 31, 15, 70, 90, 62, 57, 91, 81, 102, 96, 91, 87, 31, 98, 59, 81, 99, 45, 49, 71, 16, 50, 71, 34, 82, 18, 127, 37, 41, 75, 97, 31, 51, 77, 64, 95, 45, 35, 111, 113, 78, 63, 74, 44, 67, 38, 83, 129, 65, 88, 85, 80, 57, 120, 87, 38, 12, 88, 30, 10, 85, 85, 51, 85, 84, 31, 102, 65, 4, 95, 106, 122, 51, 75, 79, 102, 114, 98, 25, 24, 33, 76, 46, 109, 96, 85, 39, 74, 109, 56, 79, 64, 47, 107, 50, 84, 36, 70, 78, 82, 69, 97, 129, 48, 97, 80, 86, 45, 82, 88, 92, 64, 96, 80, 94, 28, 45, 59, 90, 42, 51, 33, 103, 67, 86, 52, 71, 106, 108, 63, 44, 70, 56, 114, 81, 80, 10, 103, 73, 87, 85, 27, 105, 17, 75, 54, 41, 91, 111, 84, 84, 84, 90, 112, 92, 92, 92, 107, 94, 60
              |113, 38, 96, 86, 91, 28, 51, 67, 14, 68, 111, 41, 85, 63, 53, 69, 58, 66, 83, 9, 40, 37, 66, 81, 34, 43, 69, 92, 16, 13, 82, 58, 39, 91, 87, 93, 47, 79, 107, 46, 85, 95, 43, 54, 57, 55, 20, 57, 23, 59, 55, 46, 90, 13, 61, 81, 26, 67, 62, 80, 96, 65, 64, 79, 36, 94, 17, 73, 85, 35, 18, 95, 71, 86, 61, 35, 65, 90, 13, 17, 61, 85, 37, 68, 47, 74, 31, 21, 62, 70, 49, 83, 66, 17, 66, 74, 100, 62, 84, 110, 56, 45, 83, 26, 85, 82, 8, 76, 108, 74, 28, 15, 72, 45, 32, 15, 16, 39, 86, 97, 78, 37, 81, 25, 57, 67, 71, 36, 13, 69, 40, 71, 70, 15, 70, 26, 84, 55, 50, 43, 43, 82, 20, 74, 31, 50, 24, 90, 28, 53, 64, 48, 53, 59, 20, 82, 65, 56, 57, 92, 70, 83, 8, 45, 31, 59, 83, 7, 28, 78, 72, 54, 55, 9, 30, 51, 110, 18, 77, 67, 74, 84, 26, 101, 43, 56, 90, 63, 18, 63, 65, 30, 21, 24, 65, 34, 79, 21, 52, 61
              |43, 43, 50, 10, 52, 62, 56, 78, 90, 51, 47, 39, 33, 49, 77, 48, 44, 37, 9, 68, 53, 59, 33, 47, 45, 65, 47, 54, 65, 84, 51, 44, 53, 16, 62, 18, 55, 85, 34, 64, 13, 32, 47, 78, 21, 36, 56, 71, 76, 52, 48, 71, 47, 63, 17, 84, 59, 33, 19, 32, 38, 11, 27, 35, 42, 26, 93, 20, 52, 43, 60, 51, 7, 83, 20, 74, 20, 14, 81, 74, 34, 71, 48, 12, 47, 12, 57, 97, 22, 84, 71, 84, 51, 89, 82, 13, 39, 45, 36, 39, 74, 68, 14, 50, 88, 34, 68, 68, 40, 53, 82, 90, 8, 34, 44, 65, 76, 55, 23, 47, 30, 51, 8, 84, 53, 42, 19, 45, 72, 12, 39, 21, 43, 69, 7, 51, 9, 27, 35, 40, 33, 56, 96, 49, 74, 66, 54, 59, 50, 76, 49, 42, 52, 71, 65, 26, 30, 43, 79, 58, 8, 10, 68, 31, 47, 22, 77, 71, 84, 67, 41, 57, 36, 82, 51, 67, 39, 64, 75, 44, 43, 31, 80, 28, 35, 30, 56, 83, 72, 77, 78, 46, 59, 86, 49, 51, 51, 67, 80, 51
              |68, 36, 49, 49, 44, 25, 17, 42, 61, 25, 64, 35, 38, 62, 38, 24, 56, 18, 44, 43, 50, 19, 53, 72, 34, 25, 24, 46, 32, 50, 36, 56, 14, 52, 44, 52, 16, 52, 64, 25, 43, 49, 7, 39, 31, 7, 31, 33, 39, 62, 56, 31, 43, 37, 34, 52, 45, 19, 21, 62, 49, 30, 47, 32, 32, 49, 64, 28, 39, 16, 38, 48, 39, 54, 38, 35, 22, 53, 47, 54, 50, 47, 11, 28, 8, 32, 19, 66, 41, 48, 32, 53, 24, 56, 45, 32, 53, 59, 36, 65, 36, 28, 53, 27, 57, 34, 41, 39, 63, 71, 44, 59, 41, 33, 21, 43, 55, 51, 40, 50, 31, 13, 47, 47, 61, 60, 26, 12, 50, 41, 32, 49, 23, 48, 37, 24, 46, 38, 41, 38, 19, 78, 66, 29, 35, 27, 24, 45, 20, 37, 63, 3, 58, 34, 30, 35, 18, 11, 40, 46, 38, 43, 42, 20, 34, 18, 48, 45, 46, 40, 25, 20, 8, 50, 17, 28, 65, 45, 44, 62, 65, 37, 42, 57, 30, 11, 44, 46, 53, 40, 42, 28, 27, 49, 64, 42, 74, 50, 41, 20
              |121, 46, 103, 94, 97, 33, 56, 69, 6, 73, 118, 50, 93, 70, 55, 74, 66, 72, 91, 17, 48, 42, 75, 89, 42, 47, 75, 98, 22, 10, 88, 66, 44, 100, 92, 101, 52, 81, 115, 50, 93, 103, 50, 55, 65, 62, 29, 60, 24, 66, 63, 48, 97, 22, 70, 83, 34, 74, 70, 88, 103, 74, 72, 86, 44, 102, 9, 81, 91, 43, 27, 101, 79, 89, 70, 37, 73, 99, 11, 22, 70, 89, 44, 76, 53, 82, 37, 13, 71, 71, 52, 86, 72, 11, 68, 82, 107, 70, 90, 117, 58, 48, 91, 34, 87, 89, 17, 80, 116, 81, 27, 7, 80, 54, 40, 23, 20, 46, 93, 104, 85, 43, 89, 24, 64, 75, 78, 43, 19, 78, 48, 79, 76, 22, 79, 34, 92, 64, 58, 51, 51, 89, 12, 80, 33, 53, 32, 95, 36, 55, 72, 55, 60, 62, 25, 89, 73, 63, 58, 97, 78, 92, 17, 54, 40, 67, 86, 15, 27, 83, 78, 58, 62, 6, 37, 54, 117, 26, 80, 75, 82, 91, 26, 109, 52, 64, 96, 65, 23, 65, 67, 38, 28, 21, 73, 42, 87, 28, 53, 66
              |89, 32, 96, 52, 96, 72, 81, 105, 78, 86, 95, 31, 79, 4, 98, 84, 9, 74, 56, 58, 26, 75, 15, 16, 36, 84, 83, 98, 66, 79, 92, 9, 70, 60, 103, 64, 78, 115, 79, 85, 61, 80, 68, 99, 35, 66, 52, 96, 80, 9, 11, 90, 92, 56, 36, 116, 40, 71, 53, 24, 86, 46, 21, 79, 37, 74, 80, 63, 94, 53, 49, 97, 41, 118, 30, 86, 58, 57, 77, 54, 15, 109, 63, 53, 71, 57, 69, 85, 28, 111, 92, 117, 86, 84, 108, 58, 87, 5, 81, 85, 97, 87, 41, 49, 121, 79, 60, 102, 87, 8, 87, 81, 40, 31, 49, 51, 56, 28, 70, 94, 74, 68, 45, 87, 11, 6, 62, 58, 55, 36, 34, 27, 81, 52, 42, 53, 55, 26, 23, 28, 45, 16, 83, 87, 84, 88, 57, 101, 56, 97, 2, 67, 14, 97, 69, 73, 68, 74, 101, 101, 41, 58, 59, 44, 39, 54, 112, 59, 89, 103, 80, 83, 65, 76, 61, 89, 85, 48, 108, 4, 10, 77, 85, 75, 35, 61, 99, 107, 52, 103, 105, 44, 63, 87, 1, 33, 13, 47, 99, 83
              |91, 87, 55, 92, 47, 53, 36, 13, 87, 34, 80, 86, 62, 114, 27, 37, 108, 48, 85, 81, 100, 45, 105, 124, 84, 38, 39, 47, 65, 73, 40, 108, 48, 91, 33, 88, 39, 1, 92, 35, 81, 73, 49, 27, 83, 51, 74, 23, 58, 114, 108, 34, 52, 77, 85, 2, 91, 52, 68, 112, 68, 78, 98, 54, 82, 79, 89, 66, 42, 65, 82, 52, 87, 9, 89, 45, 65, 93, 71, 94, 103, 21, 54, 73, 45, 73, 53, 88, 92, 12, 30, 5, 34, 76, 14, 73, 72, 111, 57, 90, 24, 35, 99, 73, 5, 57, 77, 18, 85, 124, 56, 82, 89, 85, 70, 84, 94, 100, 72, 59, 59, 51, 93, 60, 113, 112, 66, 60, 89, 90, 84, 99, 43, 89, 85, 68, 87, 91, 93, 90, 72, 130, 90, 38, 49, 31, 66, 39, 64, 27, 116, 50, 110, 21, 61, 65, 55, 43, 24, 42, 86, 83, 80, 72, 82, 66, 13, 82, 57, 20, 45, 33, 52, 76, 59, 30, 90, 88, 10, 114, 117, 62, 57, 88, 82, 57, 42, 19, 94, 17, 15, 77, 64, 63, 116, 91, 126, 93, 30, 34
              |66, 65, 34, 63, 26, 41, 19, 24, 80, 6, 57, 64, 35, 90, 31, 9, 84, 20, 56, 67, 78, 32, 79, 98, 63, 29, 10, 27, 53, 67, 17, 84, 31, 63, 18, 60, 23, 28, 66, 26, 53, 47, 28, 31, 57, 25, 57, 22, 52, 90, 85, 31, 29, 62, 58, 27, 73, 24, 40, 85, 43, 51, 72, 27, 60, 52, 83, 38, 20, 44, 65, 32, 59, 27, 63, 42, 37, 65, 65, 80, 77, 18, 35, 45, 24, 45, 38, 84, 66, 30, 28, 27, 6, 72, 28, 45, 48, 87, 30, 65, 26, 29, 71, 55, 31, 30, 64, 11, 60, 99, 54, 77, 61, 61, 49, 69, 80, 80, 44, 37, 31, 33, 64, 58, 89, 87, 38, 40, 75, 63, 61, 72, 15, 74, 57, 50, 59, 65, 69, 67, 48, 104, 85, 11, 44, 23, 49, 22, 46, 30, 91, 26, 87, 21, 49, 37, 27, 18, 31, 24, 58, 55, 66, 48, 62, 39, 21, 69, 56, 12, 17, 16, 26, 69, 42, 23, 65, 72, 18, 89, 91, 35, 54, 61, 58, 30, 23, 32, 79, 25, 25, 57, 49, 61, 92, 71, 100, 77, 36, 9
              |29, 57, 31, 21, 34, 64, 51, 69, 98, 40, 29, 53, 14, 68, 71, 37, 63, 28, 14, 77, 69, 59, 52, 67, 58, 62, 35, 36, 70, 89, 35, 63, 53, 18, 46, 14, 52, 73, 24, 61, 8, 13, 47, 72, 36, 34, 65, 64, 78, 71, 66, 68, 28, 72, 33, 72, 72, 24, 23, 51, 18, 24, 46, 20, 55, 10, 101, 12, 35, 49, 70, 32, 26, 70, 38, 74, 19, 20, 86, 86, 53, 57, 50, 17, 45, 12, 59, 104, 40, 75, 67, 72, 41, 95, 73, 11, 20, 64, 19, 25, 68, 65, 32, 59, 76, 17, 76, 55, 24, 72, 84, 97, 27, 49, 52, 75, 87, 71, 3, 28, 15, 52, 25, 86, 71, 62, 14, 49, 82, 31, 52, 41, 31, 80, 25, 58, 16, 44, 52, 56, 42, 75, 104, 35, 74, 61, 60, 42, 56, 70, 68, 41, 70, 64, 70, 9, 23, 38, 73, 40, 26, 11, 77, 40, 60, 25, 63, 80, 86, 54, 28, 51, 33, 89, 56, 62, 25, 76, 63, 64, 63, 13, 82, 17, 48, 29, 38, 76, 84, 69, 70, 57, 65, 89, 68, 65, 71, 80, 76, 43
              |85, 14, 73, 57, 70, 26, 38, 62, 44, 50, 84, 16, 60, 44, 52, 50, 38, 43, 54, 21, 26, 30, 42, 59, 11, 38, 50, 72, 21, 38, 62, 38, 26, 62, 70, 64, 35, 73, 78, 40, 56, 68, 26, 53, 28, 32, 9, 52, 35, 42, 37, 44, 68, 16, 32, 74, 19, 43, 34, 54, 70, 36, 37, 55, 10, 66, 46, 46, 65, 10, 14, 73, 42, 77, 33, 40, 38, 61, 36, 30, 37, 72, 20, 40, 30, 45, 23, 50, 34, 67, 47, 76, 49, 44, 63, 46, 74, 42, 59, 82, 52, 42, 54, 3, 79, 57, 21, 64, 81, 55, 42, 44, 43, 18, 5, 19, 31, 26, 58, 73, 53, 23, 51, 42, 40, 45, 44, 15, 26, 40, 13, 43, 49, 24, 41, 7, 55, 28, 25, 19, 14, 62, 49, 55, 37, 44, 11, 71, 10, 52, 45, 28, 37, 53, 24, 55, 41, 37, 56, 72, 41, 55, 21, 16, 9, 31, 72, 24, 44, 65, 50, 42, 32, 36, 15, 45, 82, 20, 68, 46, 52, 58, 40, 72, 15, 31, 70, 62, 28, 59, 61, 3, 16, 43, 46, 17, 59, 25, 53, 45
              |67, 32, 50, 46, 47, 27, 22, 47, 61, 28, 63, 30, 38, 57, 42, 28, 51, 20, 41, 42, 46, 23, 48, 67, 30, 29, 27, 48, 33, 51, 39, 51, 17, 49, 48, 49, 21, 57, 62, 29, 40, 48, 11, 43, 26, 9, 29, 38, 41, 57, 52, 36, 45, 36, 29, 57, 42, 20, 17, 57, 49, 26, 42, 33, 28, 48, 64, 26, 42, 14, 36, 49, 34, 59, 33, 38, 19, 49, 48, 52, 45, 51, 12, 25, 13, 29, 22, 66, 36, 53, 37, 58, 28, 57, 50, 30, 53, 54, 37, 63, 41, 33, 48, 25, 62, 35, 40, 44, 62, 67, 46, 59, 36, 28, 18, 41, 53, 47, 39, 51, 31, 15, 43, 49, 56, 55, 24, 11, 48, 36, 28, 44, 26, 46, 33, 22, 42, 33, 36, 34, 15, 73, 67, 32, 38, 31, 23, 48, 19, 41, 58, 8, 54, 39, 32, 35, 18, 15, 45, 49, 33, 40, 41, 15, 30, 14, 53, 44, 49, 45, 27, 25, 9, 51, 18, 33, 63, 43, 49, 57, 60, 37, 45, 55, 25, 9, 47, 51, 51, 45, 47, 25, 27, 51, 59, 38, 69, 48, 45, 24
              |52, 33, 50, 23, 50, 49, 44, 68, 77, 43, 53, 29, 33, 46, 65, 40, 41, 29, 20, 55, 44, 46, 33, 50, 34, 52, 39, 52, 51, 70, 46, 41, 40, 28, 57, 30, 43, 75, 45, 52, 22, 37, 34, 66, 12, 25, 43, 59, 62, 49, 43, 59, 45, 50, 11, 75, 48, 26, 8, 37, 41, 3, 25, 33, 31, 34, 80, 17, 48, 30, 47, 50, 11, 75, 16, 61, 12, 28, 68, 63, 32, 64, 34, 7, 35, 13, 44, 84, 19, 74, 59, 76, 43, 76, 71, 14, 44, 42, 35, 48, 63, 56, 25, 37, 79, 33, 55, 60, 48, 53, 68, 77, 14, 24, 31, 52, 64, 47, 27, 48, 28, 38, 20, 70, 48, 41, 15, 31, 59, 14, 28, 24, 35, 57, 10, 37, 21, 21, 28, 31, 20, 57, 83, 42, 60, 54, 40, 55, 36, 64, 47, 30, 47, 60, 52, 27, 22, 33, 67, 55, 10, 21, 55, 18, 36, 10, 69, 58, 71, 59, 34, 46, 24, 69, 38, 55, 48, 53, 66, 43, 44, 31, 67, 38, 24, 19, 52, 72, 61, 66, 68, 34, 46, 72, 47, 41, 53, 56, 68, 41
              |64, 38, 45, 46, 41, 29, 19, 43, 65, 22, 59, 36, 34, 63, 40, 22, 56, 15, 40, 47, 52, 23, 53, 72, 36, 28, 21, 43, 36, 54, 33, 56, 17, 49, 42, 48, 18, 52, 59, 27, 39, 45, 11, 41, 31, 3, 34, 35, 43, 63, 57, 34, 39, 41, 33, 52, 48, 15, 18, 61, 45, 28, 46, 28, 34, 45, 68, 24, 36, 19, 42, 44, 36, 53, 37, 38, 18, 49, 52, 58, 50, 45, 15, 25, 10, 28, 24, 70, 40, 49, 34, 53, 22, 60, 46, 29, 49, 59, 32, 61, 38, 31, 50, 30, 57, 30, 45, 38, 58, 72, 48, 63, 39, 34, 24, 47, 59, 53, 36, 46, 27, 17, 44, 51, 62, 60, 22, 16, 53, 39, 34, 48, 20, 52, 35, 27, 42, 38, 41, 40, 21, 78, 70, 26, 39, 29, 28, 42, 24, 39, 64, 5, 60, 35, 35, 31, 14, 9, 42, 43, 35, 40, 46, 21, 36, 15, 47, 49, 50, 39, 21, 21, 4, 55, 22, 30, 61, 49, 44, 62, 65, 33, 47, 53, 31, 7, 41, 47, 57, 41, 43, 31, 31, 53, 64, 45, 74, 54, 43, 19
              |59, 64, 28, 57, 21, 45, 22, 31, 84, 4, 50, 62, 28, 87, 37, 4, 81, 15, 50, 69, 77, 36, 76, 94, 62, 34, 5, 21, 56, 71, 11, 81, 34, 57, 16, 53, 26, 34, 59, 31, 46, 40, 29, 38, 53, 23, 58, 29, 57, 88, 82, 37, 22, 64, 54, 33, 73, 18, 36, 81, 36, 46, 69, 20, 59, 45, 86, 32, 14, 44, 66, 25, 54, 32, 59, 47, 33, 59, 68, 81, 74, 21, 36, 40, 25, 39, 41, 88, 62, 37, 34, 33, 6, 76, 35, 39, 41, 84, 23, 58, 33, 35, 66, 55, 37, 23, 66, 17, 53, 95, 59, 80, 56, 59, 49, 70, 82, 79, 37, 31, 25, 35, 59, 63, 87, 84, 32, 40, 77, 58, 59, 68, 9, 75, 52, 51, 52, 62, 66, 65, 46, 101, 89, 4, 49, 29, 50, 18, 47, 36, 88, 26, 85, 28, 53, 30, 22, 17, 38, 20, 53, 48, 68, 46, 62, 35, 25, 71, 61, 16, 11, 21, 23, 72, 43, 29, 58, 73, 24, 85, 88, 28, 59, 54, 56, 27, 18, 39, 80, 32, 32, 56, 51, 66, 89, 70, 96, 78, 42, 11
              |118, 52, 96, 95, 90, 26, 48, 57, 17, 66, 114, 55, 88, 79, 43, 67, 74, 67, 91, 25, 57, 34, 81, 97, 48, 37, 68, 91, 20, 4, 80, 74, 38, 100, 84, 100, 44, 69, 113, 40, 92, 99, 45, 43, 68, 57, 32, 49, 13, 76, 72, 37, 91, 27, 72, 71, 43, 69, 68, 94, 99, 74, 77, 81, 49, 100, 19, 78, 84, 42, 34, 95, 81, 78, 73, 25, 71, 99, 5, 34, 76, 79, 40, 76, 47, 81, 31, 18, 75, 59, 41, 74, 64, 6, 56, 81, 103, 78, 86, 115, 46, 38, 94, 37, 75, 84, 23, 70, 113, 90, 14, 12, 83, 58, 41, 32, 33, 56, 91, 98, 81, 38, 91, 10, 74, 83, 76, 41, 31, 81, 53, 84, 70, 33, 80, 35, 93, 68, 64, 57, 52, 98, 20, 73, 22, 43, 32, 87, 35, 43, 81, 50, 70, 51, 20, 86, 69, 57, 46, 90, 80, 91, 24, 55, 45, 65, 76, 24, 13, 73, 72, 50, 58, 8, 34, 44, 115, 35, 69, 83, 90, 87, 13, 107, 55, 61, 88, 52, 35, 53, 55, 42, 26, 8, 82, 50, 96, 38, 40, 59
              |29, 60, 47, 8, 52, 77, 67, 87, 107, 58, 37, 55, 32, 62, 88, 56, 58, 45, 9, 84, 68, 73, 45, 55, 62, 78, 54, 54, 80, 99, 54, 58, 67, 1, 65, 6, 67, 92, 19, 76, 11, 26, 60, 89, 37, 48, 72, 81, 90, 66, 62, 83, 46, 79, 33, 90, 75, 41, 33, 39, 33, 27, 40, 38, 59, 18, 109, 27, 54, 59, 76, 50, 23, 89, 36, 88, 31, 3, 97, 91, 47, 76, 62, 25, 60, 21, 71, 113, 36, 93, 83, 90, 59, 105, 91, 21, 32, 58, 37, 25, 85, 80, 19, 66, 95, 36, 84, 74, 28, 63, 96, 106, 22, 50, 60, 81, 92, 71, 21, 44, 33, 65, 15, 99, 66, 54, 28, 60, 88, 26, 55, 33, 49, 85, 23, 66, 8, 43, 51, 56, 49, 64, 112, 54, 88, 77, 69, 60, 65, 87, 61, 55, 66, 81, 81, 28, 39, 54, 90, 59, 23, 10, 84, 47, 64, 36, 82, 87, 99, 73, 47, 68, 47, 98, 66, 78, 25, 81, 82, 56, 53, 31, 95, 15, 51, 43, 57, 93, 88, 87, 88, 63, 75, 101, 61, 67, 60, 83, 92, 60
              |83, 68, 51, 77, 43, 35, 17, 9, 72, 21, 73, 68, 51, 96, 15, 24, 89, 33, 70, 63, 81, 27, 87, 106, 65, 20, 26, 43, 47, 58, 33, 89, 29, 78, 31, 75, 20, 18, 82, 17, 68, 64, 30, 16, 65, 34, 55, 7, 43, 95, 89, 19, 46, 59, 67, 19, 73, 37, 51, 95, 60, 62, 81, 43, 63, 68, 74, 52, 36, 46, 63, 48, 70, 23, 72, 30, 50, 79, 56, 76, 84, 24, 36, 57, 27, 59, 34, 74, 75, 15, 15, 21, 20, 62, 12, 58, 64, 93, 47, 81, 11, 18, 84, 55, 24, 46, 60, 15, 77, 105, 42, 67, 72, 67, 51, 66, 76, 81, 60, 54, 47, 32, 77, 46, 94, 94, 51, 41, 71, 73, 65, 82, 30, 71, 69, 50, 73, 72, 74, 71, 53, 112, 76, 28, 34, 13, 47, 36, 46, 14, 97, 31, 91, 5, 43, 53, 40, 26, 14, 39, 69, 69, 62, 54, 64, 49, 20, 65, 44, 18, 33, 14, 35, 60, 41, 12, 81, 70, 14, 95, 99, 51, 43, 77, 63, 40, 39, 15, 76, 8, 9, 58, 45, 50, 98, 73, 108, 75, 20, 18
              |83, 72, 50, 79, 42, 39, 21, 7, 76, 22, 73, 71, 52, 99, 17, 25, 93, 35, 72, 67, 85, 31, 91, 109, 69, 24, 27, 42, 51, 62, 33, 93, 33, 79, 29, 77, 24, 14, 83, 21, 69, 64, 34, 18, 68, 37, 59, 10, 46, 99, 93, 22, 45, 63, 70, 15, 77, 39, 54, 98, 60, 64, 84, 44, 67, 69, 78, 54, 35, 50, 67, 47, 73, 19, 75, 34, 52, 81, 59, 80, 88, 21, 39, 60, 30, 61, 39, 78, 78, 13, 18, 17, 21, 66, 11, 60, 64, 96, 47, 82, 13, 22, 86, 59, 20, 47, 64, 13, 77, 109, 46, 71, 75, 70, 55, 70, 80, 85, 61, 53, 48, 36, 79, 50, 98, 98, 53, 45, 75, 76, 69, 85, 31, 75, 72, 54, 74, 76, 78, 75, 57, 115, 79, 28, 37, 17, 51, 35, 50, 17, 101, 35, 95, 8, 47, 54, 42, 29, 16, 38, 72, 71, 66, 57, 68, 52, 16, 69, 47, 16, 34, 18, 38, 64, 45, 16, 82, 74, 10, 99, 103, 52, 46, 78, 67, 43, 38, 15, 80, 9, 9, 62, 49, 53, 101, 77, 111, 79, 22, 21
              |79, 33, 87, 42, 88, 72, 77, 102, 83, 80, 85, 31, 70, 14, 96, 78, 13, 67, 46, 61, 31, 73, 6, 13, 37, 81, 77, 90, 67, 82, 85, 13, 68, 49, 96, 54, 75, 111, 69, 82, 51, 71, 65, 96, 29, 61, 54, 92, 81, 18, 17, 88, 84, 58, 28, 111, 45, 64, 46, 13, 76, 38, 14, 71, 37, 64, 85, 55, 87, 51, 52, 88, 32, 113, 23, 86, 51, 46, 80, 60, 10, 103, 61, 45, 67, 48, 68, 90, 20, 108, 90, 112, 80, 87, 104, 49, 78, 11, 73, 74, 95, 85, 31, 49, 116, 71, 63, 97, 77, 14, 88, 85, 31, 29, 48, 55, 62, 34, 61, 85, 66, 65, 35, 88, 20, 5, 54, 55, 60, 27, 33, 17, 74, 57, 33, 53, 45, 21, 22, 28, 41, 19, 88, 81, 83, 85, 57, 94, 55, 95, 13, 62, 22, 94, 70, 64, 61, 69, 99, 93, 32, 48, 62, 40, 40, 47, 106, 63, 90, 97, 73, 80, 60, 79, 60, 87, 74, 52, 103, 7, 6, 68, 86, 64, 33, 55, 91, 105, 58, 99, 101, 44, 63, 89, 12, 36, 14, 52, 98, 78
              |77, 38, 56, 58, 50, 16, 13, 38, 53, 27, 72, 38, 47, 66, 30, 28, 59, 26, 53, 37, 51, 10, 59, 78, 35, 17, 28, 52, 25, 42, 41, 59, 4, 62, 47, 61, 10, 48, 73, 17, 52, 58, 3, 31, 38, 16, 27, 28, 29, 65, 59, 23, 50, 32, 41, 49, 43, 28, 30, 69, 57, 39, 53, 40, 33, 59, 56, 38, 45, 16, 35, 54, 47, 52, 45, 25, 31, 62, 39, 50, 55, 48, 5, 37, 6, 41, 11, 58, 48, 43, 25, 51, 26, 47, 40, 42, 62, 63, 44, 74, 29, 20, 61, 25, 54, 42, 35, 39, 72, 76, 34, 51, 49, 37, 21, 39, 50, 51, 50, 57, 40, 4, 56, 37, 64, 65, 36, 11, 45, 49, 35, 56, 29, 44, 46, 20, 55, 44, 45, 41, 24, 83, 59, 34, 25, 20, 19, 49, 16, 30, 67, 9, 61, 29, 22, 44, 27, 16, 34, 51, 46, 53, 37, 25, 34, 27, 47, 40, 37, 41, 31, 17, 17, 42, 12, 21, 74, 42, 43, 66, 71, 45, 33, 67, 33, 20, 49, 39, 49, 35, 37, 28, 20, 40, 68, 42, 79, 47, 33, 21
              |94, 19, 94, 58, 93, 58, 70, 95, 61, 79, 98, 20, 78, 13, 86, 78, 10, 68, 60, 41, 9, 63, 23, 32, 23, 71, 77, 95, 51, 63, 88, 10, 59, 65, 97, 69, 67, 105, 85, 73, 64, 82, 58, 86, 33, 59, 37, 85, 65, 9, 6, 77, 89, 40, 36, 106, 23, 66, 50, 37, 86, 45, 26, 76, 24, 77, 63, 62, 90, 41, 33, 94, 44, 109, 31, 72, 55, 63, 61, 37, 19, 102, 52, 52, 61, 57, 56, 68, 30, 100, 80, 108, 78, 67, 96, 58, 89, 14, 79, 90, 86, 75, 49, 35, 111, 77, 44, 94, 91, 24, 72, 64, 44, 23, 37, 35, 39, 11, 72, 93, 72, 56, 51, 71, 8, 19, 60, 46, 38, 40, 23, 34, 75, 35, 45, 40, 59, 24, 17, 17, 36, 32, 66, 82, 69, 77, 43, 97, 43, 85, 15, 58, 4, 86, 55, 72, 63, 66, 89, 97, 44, 61, 42, 36, 25, 49, 103, 43, 73, 95, 75, 73, 59, 59, 48, 78, 90, 31, 99, 19, 26, 76, 70, 79, 26, 55, 95, 95, 35, 92, 94, 30, 48, 71, 16, 17, 30, 30, 86, 75
              |93, 60, 64, 81, 57, 22, 17, 19, 55, 32, 85, 61, 61, 89, 6, 35, 83, 41, 75, 49, 72, 16, 84, 102, 57, 8, 37, 57, 33, 41, 47, 83, 21, 83, 47, 82, 17, 31, 91, 8, 73, 74, 26, 7, 63, 36, 44, 10, 26, 88, 82, 2, 59, 46, 66, 33, 61, 44, 53, 93, 71, 63, 77, 53, 55, 77, 57, 57, 50, 39, 51, 62, 71, 39, 70, 13, 53, 84, 39, 62, 80, 41, 29, 60, 25, 63, 23, 57, 72, 22, 2, 36, 31, 45, 19, 63, 76, 87, 57, 91, 8, 4, 85, 45, 37, 56, 46, 32, 87, 100, 25, 50, 73, 61, 43, 53, 62, 72, 68, 67, 56, 24, 80, 29, 86, 89, 56, 34, 57, 73, 58, 81, 40, 57, 70, 40, 77, 68, 69, 64, 48, 107, 59, 40, 17, 8, 36, 52, 36, 6, 91, 30, 83, 12, 29, 61, 46, 30, 10, 54, 70, 74, 48, 50, 54, 50, 37, 50, 27, 35, 43, 17, 37, 44, 31, 7, 91, 57, 31, 90, 95, 61, 26, 85, 57, 42, 54, 17, 62, 15, 17, 49, 33, 33, 91, 63, 103, 62, 8, 27
              |62, 50, 37, 51, 31, 34, 15, 35, 72, 11, 55, 48, 30, 74, 35, 10, 68, 9, 44, 56, 63, 25, 64, 82, 48, 27, 10, 33, 43, 60, 23, 68, 22, 52, 30, 50, 17, 42, 59, 25, 42, 42, 16, 36, 41, 9, 44, 28, 47, 75, 69, 32, 31, 50, 43, 41, 59, 12, 26, 70, 40, 36, 57, 22, 45, 45, 75, 26, 26, 30, 52, 35, 44, 42, 47, 39, 23, 53, 57, 68, 61, 34, 23, 31, 13, 33, 29, 77, 50, 41, 31, 43, 10, 66, 38, 32, 45, 71, 26, 59, 32, 29, 57, 41, 46, 25, 53, 27, 56, 83, 50, 69, 47, 46, 35, 57, 68, 65, 36, 38, 24, 22, 51, 54, 74, 71, 25, 26, 63, 48, 46, 57, 10, 62, 43, 37, 47, 49, 53, 52, 32, 89, 77, 15, 41, 25, 37, 31, 33, 34, 75, 12, 71, 28, 41, 29, 14, 3, 37, 33, 43, 43, 55, 32, 48, 24, 36, 58, 53, 27, 13, 15, 10, 61, 30, 25, 59, 59, 33, 73, 76, 29, 50, 53, 43, 15, 31, 40, 67, 34, 35, 42, 39, 57, 76, 56, 84, 64, 39, 8
              |32, 82, 5, 50, 14, 75, 54, 62, 113, 37, 19, 78, 18, 97, 70, 35, 92, 34, 43, 95, 94, 67, 82, 97, 81, 67, 33, 14, 84, 102, 23, 92, 63, 45, 28, 40, 57, 61, 36, 64, 38, 20, 57, 71, 63, 46, 83, 61, 88, 100, 94, 70, 11, 90, 61, 59, 95, 34, 46, 81, 13, 51, 75, 21, 78, 28, 116, 34, 20, 67, 90, 8, 56, 54, 67, 79, 41, 48, 99, 106, 82, 40, 63, 44, 54, 40, 70, 118, 69, 67, 67, 57, 38, 107, 66, 39, 14, 93, 17, 32, 66, 67, 62, 78, 61, 19, 93, 44, 26, 102, 91, 111, 57, 74, 72, 95, 107, 97, 27, 3, 24, 64, 55, 95, 99, 91, 36, 65, 102, 61, 77, 71, 31, 100, 55, 76, 45, 72, 79, 81, 64, 105, 118, 29, 81, 62, 76, 22, 72, 69, 97, 52, 98, 60, 82, 24, 36, 44, 70, 19, 56, 41, 95, 63, 82, 47, 48, 98, 93, 41, 29, 53, 45, 102, 70, 62, 32, 97, 51, 93, 93, 20, 91, 34, 72, 45, 18, 70, 105, 64, 64, 78, 79, 98, 97, 89, 101, 101, 75, 43
              |94, 60, 65, 81, 57, 21, 17, 20, 54, 33, 86, 60, 62, 88, 7, 36, 82, 41, 75, 48, 71, 16, 83, 102, 56, 8, 37, 58, 32, 40, 48, 82, 21, 83, 48, 82, 17, 32, 91, 8, 73, 74, 26, 8, 63, 36, 43, 11, 25, 87, 82, 1, 59, 45, 66, 34, 60, 44, 53, 93, 72, 63, 77, 54, 55, 77, 56, 58, 51, 38, 50, 62, 71, 40, 69, 12, 53, 84, 38, 61, 79, 42, 28, 60, 25, 63, 23, 56, 72, 23, 3, 37, 32, 44, 20, 63, 76, 86, 58, 91, 9, 4, 85, 44, 38, 57, 45, 33, 88, 99, 24, 49, 73, 60, 42, 52, 61, 71, 68, 67, 56, 24, 79, 28, 86, 89, 56, 34, 56, 73, 57, 80, 40, 56, 70, 39, 77, 68, 68, 63, 48, 106, 58, 41, 16, 8, 35, 52, 35, 7, 90, 30, 82, 13, 28, 62, 46, 31, 11, 55, 70, 74, 47, 49, 54, 50, 38, 49, 26, 36, 43, 17, 37, 43, 30, 8, 91, 56, 32, 90, 95, 61, 25, 86, 57, 42, 54, 17, 61, 16, 18, 48, 32, 32, 91, 62, 102, 61, 9, 27
              |93, 77, 60, 88, 52, 40, 27, 3, 73, 32, 83, 76, 62, 105, 13, 35, 98, 45, 82, 68, 89, 33, 97, 116, 73, 25, 37, 51, 52, 59, 43, 98, 37, 89, 39, 86, 29, 13, 93, 23, 79, 74, 39, 13, 75, 45, 62, 11, 44, 104, 98, 21, 55, 64, 78, 15, 79, 49, 62, 106, 70, 73, 91, 54, 72, 79, 75, 63, 46, 54, 69, 57, 81, 22, 82, 31, 61, 90, 57, 81, 94, 29, 44, 68, 37, 70, 41, 74, 85, 4, 17, 18, 31, 62, 1, 70, 75, 102, 57, 92, 11, 22, 95, 62, 19, 57, 64, 22, 87, 115, 42, 68, 83, 76, 59, 72, 80, 89, 71, 63, 58, 40, 88, 46, 103, 104, 62, 50, 76, 84, 74, 93, 41, 76, 80, 57, 84, 82, 84, 80, 62, 122, 76, 38, 35, 19, 54, 44, 53, 13, 106, 41, 99, 10, 47, 64, 51, 37, 10, 47, 80, 80, 66, 63, 71, 60, 22, 69, 43, 25, 44, 24, 46, 62, 48, 18, 92, 76, 16, 105, 109, 62, 43, 88, 72, 51, 47, 6, 81, 4, 2, 66, 51, 49, 107, 80, 117, 81, 16, 30
              |18, 68, 31, 23, 37, 76, 61, 78, 110, 49, 21, 64, 19, 75, 81, 46, 71, 38, 18, 89, 78, 70, 59, 71, 69, 73, 44, 39, 82, 101, 41, 71, 64, 17, 51, 11, 63, 81, 13, 71, 13, 9, 58, 82, 45, 45, 76, 74, 90, 79, 74, 78, 31, 83, 42, 79, 82, 34, 34, 55, 16, 33, 53, 27, 66, 2, 112, 23, 40, 61, 81, 34, 34, 76, 46, 85, 30, 20, 98, 97, 60, 63, 61, 28, 56, 22, 70, 116, 48, 84, 77, 79, 50, 106, 82, 21, 15, 71, 24, 14, 78, 75, 35, 70, 83, 24, 88, 63, 14, 78, 95, 109, 34, 59, 64, 86, 98, 81, 11, 28, 23, 64, 29, 98, 79, 68, 25, 60, 93, 38, 63, 47, 40, 91, 33, 69, 19, 53, 61, 65, 53, 80, 115, 43, 85, 71, 72, 46, 67, 80, 75, 52, 79, 73, 81, 17, 34, 48, 83, 44, 34, 16, 88, 51, 70, 37, 70, 91, 97, 61, 37, 62, 44, 100, 67, 72, 14, 87, 71, 70, 68, 19, 94, 7, 58, 40, 42, 85, 95, 78, 79, 68, 76, 100, 75, 75, 76, 90, 86, 53
              |75, 15, 75, 40, 75, 51, 57, 82, 66, 63, 79, 11, 59, 22, 75, 61, 16, 51, 41, 43, 20, 53, 15, 33, 18, 61, 60, 77, 47, 63, 70, 16, 48, 48, 80, 51, 55, 92, 67, 62, 45, 63, 45, 76, 14, 43, 34, 72, 61, 23, 17, 67, 71, 39, 16, 92, 29, 49, 32, 28, 67, 26, 11, 58, 17, 58, 68, 43, 72, 30, 34, 76, 25, 94, 13, 65, 36, 45, 61, 45, 11, 86, 40, 33, 47, 38, 47, 73, 12, 88, 69, 94, 62, 68, 85, 39, 70, 19, 60, 71, 74, 65, 33, 29, 97, 58, 45, 79, 72, 31, 68, 67, 26, 9, 28, 38, 47, 23, 52, 74, 53, 45, 34, 68, 23, 20, 41, 35, 44, 22, 13, 19, 58, 41, 26, 33, 41, 5, 3, 10, 21, 38, 71, 64, 63, 65, 37, 79, 35, 74, 23, 43, 21, 74, 50, 53, 45, 50, 78, 79, 25, 43, 44, 21, 21, 31, 88, 46, 70, 80, 58, 60, 42, 61, 39, 66, 71, 36, 85, 21, 26, 57, 66, 61, 12, 38, 77, 84, 43, 80, 82, 24, 43, 69, 24, 20, 34, 38, 77, 59
              |112, 43, 92, 87, 86, 22, 45, 58, 17, 62, 108, 46, 83, 70, 44, 64, 65, 62, 84, 17, 48, 31, 72, 88, 39, 35, 64, 88, 13, 6, 77, 65, 34, 92, 81, 93, 41, 70, 107, 38, 85, 93, 39, 45, 59, 52, 23, 49, 13, 67, 63, 37, 86, 18, 64, 72, 34, 64, 61, 85, 94, 67, 68, 76, 40, 93, 20, 72, 80, 34, 25, 91, 73, 78, 65, 26, 64, 92, 4, 27, 67, 78, 34, 68, 43, 73, 26, 21, 66, 61, 41, 75, 61, 12, 58, 74, 98, 69, 80, 109, 47, 37, 86, 29, 76, 79, 14, 69, 107, 81, 18, 14, 74, 49, 33, 23, 26, 47, 84, 93, 76, 33, 83, 16, 65, 74, 70, 34, 23, 72, 44, 75, 66, 24, 72, 27, 85, 60, 55, 48, 44, 89, 22, 69, 22, 42, 24, 84, 28, 44, 72, 45, 61, 51, 14, 80, 63, 52, 48, 86, 72, 84, 15, 47, 36, 58, 75, 16, 18, 71, 68, 47, 52, 6, 28, 43, 109, 27, 69, 74, 81, 81, 16, 100, 47, 54, 85, 54, 28, 54, 56, 33, 19, 14, 73, 41, 86, 30, 42, 56
              |15, 74, 24, 32, 31, 78, 62, 76, 114, 47, 12, 71, 17, 84, 81, 44, 79, 38, 27, 94, 86, 72, 68, 81, 75, 74, 42, 33, 86, 104, 37, 79, 67, 26, 46, 21, 64, 77, 16, 72, 22, 5, 60, 82, 53, 47, 81, 73, 92, 87, 83, 78, 25, 88, 50, 75, 89, 36, 39, 65, 9, 41, 62, 25, 72, 9, 117, 27, 35, 65, 87, 27, 42, 72, 55, 86, 35, 29, 101, 103, 69, 58, 64, 35, 58, 29, 73, 120, 56, 81, 77, 74, 49, 110, 80, 28, 6, 80, 22, 13, 77, 76, 44, 75, 78, 22, 92, 59, 9, 87, 97, 112, 43, 66, 69, 92, 104, 88, 15, 20, 23, 66, 38, 100, 87, 77, 29, 64, 99, 47, 69, 56, 39, 97, 41, 74, 28, 61, 69, 73, 59, 89, 120, 40, 87, 71, 76, 40, 72, 80, 84, 54, 87, 72, 84, 18, 36, 49, 82, 38, 42, 25, 93, 57, 76, 42, 65, 96, 99, 57, 36, 61, 46, 104, 71, 72, 13, 93, 67, 79, 78, 18, 96, 13, 65, 44, 36, 83, 101, 76, 77, 74, 80, 102, 84, 82, 85, 97, 85, 52
              |99, 64, 70, 87, 62, 25, 23, 20, 54, 38, 91, 65, 67, 93, 6, 41, 87, 47, 81, 51, 75, 21, 89, 107, 60, 13, 42, 62, 35, 40, 52, 87, 27, 89, 52, 88, 23, 32, 97, 14, 79, 80, 32, 6, 68, 42, 47, 14, 25, 92, 86, 7, 64, 48, 72, 34, 64, 50, 59, 99, 77, 69, 82, 59, 59, 83, 56, 64, 56, 43, 54, 67, 77, 41, 75, 13, 59, 90, 38, 64, 85, 45, 34, 66, 31, 69, 27, 55, 77, 22, 8, 37, 37, 43, 19, 69, 81, 91, 63, 97, 10, 10, 91, 48, 38, 62, 47, 36, 93, 104, 23, 49, 79, 65, 47, 55, 63, 75, 74, 72, 62, 29, 85, 27, 90, 94, 62, 39, 59, 79, 62, 86, 46, 59, 76, 43, 83, 73, 73, 68, 53, 111, 57, 46, 17, 14, 40, 57, 40, 7, 95, 36, 87, 16, 31, 67, 52, 36, 9, 59, 76, 80, 49, 55, 58, 56, 40, 51, 24, 39, 49, 23, 43, 43, 35, 13, 97, 59, 33, 95, 100, 67, 24, 91, 62, 48, 59, 15, 64, 16, 18, 53, 35, 30, 96, 66, 108, 64, 4, 33
              |121, 49, 101, 96, 95, 31, 53, 65, 9, 71, 118, 53, 92, 75, 51, 72, 70, 71, 92, 21, 52, 40, 78, 93, 46, 43, 73, 97, 22, 5, 86, 70, 43, 101, 90, 102, 50, 77, 116, 47, 93, 103, 49, 51, 67, 61, 31, 56, 20, 71, 67, 44, 95, 25, 72, 79, 38, 73, 70, 92, 103, 75, 75, 85, 47, 102, 11, 81, 89, 43, 30, 100, 81, 85, 72, 33, 73, 100, 7, 27, 73, 86, 43, 77, 52, 82, 35, 12, 73, 67, 48, 82, 70, 5, 64, 83, 107, 74, 90, 118, 54, 45, 94, 36, 83, 88, 19, 77, 116, 86, 22, 5, 82, 57, 42, 27, 26, 51, 94, 103, 85, 42, 91, 19, 69, 79, 79, 43, 24, 80, 51, 82, 75, 27, 81, 35, 94, 67, 62, 54, 53, 94, 13, 78, 29, 50, 32, 93, 37, 51, 77, 54, 65, 58, 24, 89, 72, 61, 54, 95, 80, 93, 20, 55, 43, 67, 83, 19, 22, 80, 77, 56, 62, 4, 37, 51, 118, 30, 77, 79, 86, 91, 21, 109, 54, 64, 94, 60, 29, 61, 63, 41, 28, 16, 78, 46, 91, 33, 48, 64
              |114, 35, 99, 85, 94, 33, 55, 72, 16, 72, 112, 39, 87, 58, 59, 72, 54, 69, 83, 8, 36, 42, 63, 77, 32, 48, 73, 96, 21, 19, 85, 54, 43, 91, 91, 93, 51, 85, 107, 51, 85, 97, 47, 59, 56, 57, 21, 63, 29, 54, 51, 51, 93, 14, 60, 86, 22, 69, 62, 77, 98, 65, 61, 82, 34, 95, 19, 74, 89, 36, 16, 98, 70, 92, 59, 41, 66, 90, 19, 11, 58, 90, 40, 69, 51, 74, 35, 23, 60, 76, 55, 89, 70, 22, 72, 75, 102, 58, 86, 110, 61, 51, 81, 26, 91, 84, 9, 81, 109, 69, 34, 19, 71, 43, 33, 12, 9, 34, 87, 100, 80, 41, 80, 32, 52, 63, 72, 38, 7, 68, 38, 69, 73, 10, 70, 27, 84, 53, 47, 40, 43, 77, 22, 78, 37, 55, 26, 94, 30, 59, 60, 51, 48, 65, 25, 83, 68, 60, 63, 95, 69, 84, 8, 45, 29, 60, 88, 5, 35, 83, 75, 58, 58, 15, 33, 56, 110, 14, 82, 63, 70, 86, 32, 101, 42, 58, 94, 69, 12, 68, 71, 29, 25, 30, 61, 30, 75, 16, 58, 65
              |45, 52, 27, 36, 25, 48, 32, 50, 85, 22, 40, 49, 14, 71, 52, 19, 65, 9, 29, 66, 65, 41, 57, 74, 51, 44, 17, 28, 56, 74, 22, 65, 36, 36, 33, 33, 34, 55, 42, 42, 25, 25, 30, 53, 36, 17, 53, 45, 62, 72, 67, 49, 22, 60, 35, 54, 65, 5, 18, 60, 25, 26, 50, 9, 48, 27, 88, 10, 23, 38, 60, 27, 33, 53, 41, 56, 13, 37, 71, 76, 56, 41, 35, 19, 27, 18, 43, 90, 43, 57, 48, 55, 23, 80, 54, 17, 29, 67, 13, 42, 49, 46, 44, 48, 59, 11, 64, 38, 39, 77, 67, 83, 35, 45, 42, 65, 77, 67, 18, 27, 7, 36, 37, 70, 72, 66, 11, 36, 72, 38, 47, 48, 13, 70, 32, 46, 31, 45, 51, 52, 34, 82, 90, 19, 57, 42, 47, 30, 43, 51, 71, 24, 70, 45, 54, 12, 6, 19, 54, 30, 33, 27, 65, 33, 52, 18, 47, 68, 69, 37, 11, 33, 16, 74, 41, 43, 42, 67, 46, 68, 69, 13, 65, 36, 43, 15, 28, 57, 75, 50, 51, 48, 51, 72, 72, 59, 78, 71, 57, 24
              |104, 58, 77, 88, 70, 18, 28, 32, 42, 45, 97, 59, 73, 87, 18, 48, 81, 51, 82, 40, 67, 19, 84, 102, 54, 16, 49, 71, 25, 28, 60, 81, 25, 91, 61, 90, 26, 44, 101, 18, 81, 85, 32, 18, 66, 44, 39, 25, 14, 85, 80, 13, 72, 38, 69, 46, 55, 54, 60, 95, 83, 68, 79, 65, 53, 87, 44, 66, 64, 39, 45, 75, 76, 53, 72, 4, 60, 91, 26, 53, 80, 56, 31, 67, 33, 71, 22, 43, 74, 34, 17, 49, 44, 31, 31, 71, 87, 85, 69, 102, 22, 15, 90, 41, 50, 68, 37, 47, 98, 98, 11, 37, 78, 60, 41, 45, 52, 67, 78, 80, 66, 27, 85, 15, 83, 88, 65, 35, 48, 77, 56, 83, 52, 49, 75, 37, 84, 69, 68, 62, 50, 106, 45, 53, 6, 21, 33, 66, 34, 18, 89, 37, 79, 27, 21, 72, 55, 40, 21, 68, 75, 82, 39, 52, 51, 56, 51, 41, 13, 49, 55, 29, 45, 31, 30, 21, 102, 50, 45, 89, 95, 72, 12, 95, 57, 49, 67, 27, 53, 28, 30, 46, 27, 18, 89, 59, 102, 54, 15, 39
              |67, 20, 59, 38, 57, 36, 38, 63, 62, 43, 67, 17, 44, 42, 57, 42, 36, 32, 36, 40, 33, 35, 33, 52, 20, 43, 41, 59, 37, 55, 51, 36, 30, 44, 61, 45, 36, 72, 60, 43, 37, 51, 26, 58, 12, 23, 27, 53, 48, 42, 37, 49, 54, 34, 16, 72, 34, 30, 16, 42, 54, 18, 26, 41, 17, 48, 65, 29, 54, 15, 32, 59, 24, 74, 19, 49, 21, 43, 53, 47, 30, 66, 23, 21, 28, 27, 31, 68, 21, 69, 51, 74, 43, 61, 65, 28, 57, 39, 44, 63, 56, 47, 37, 21, 77, 42, 39, 59, 63, 51, 55, 62, 26, 14, 16, 37, 49, 35, 41, 59, 37, 27, 34, 57, 42, 40, 27, 18, 44, 24, 15, 30, 39, 41, 23, 22, 37, 18, 21, 20, 4, 57, 68, 45, 48, 46, 25, 60, 22, 56, 43, 23, 39, 54, 38, 39, 27, 30, 60, 61, 23, 36, 40, 2, 21, 14, 68, 43, 57, 60, 39, 40, 22, 54, 24, 48, 63, 37, 65, 41, 45, 42, 53, 54, 11, 19, 59, 66, 45, 60, 62, 18, 31, 58, 44, 27, 53, 41, 59, 39
              |92, 91, 56, 94, 48, 57, 40, 17, 91, 37, 80, 90, 63, 118, 31, 39, 112, 51, 87, 85, 104, 49, 109, 127, 88, 42, 41, 47, 69, 77, 41, 112, 52, 93, 33, 90, 43, 5, 94, 39, 83, 75, 52, 31, 86, 55, 78, 27, 62, 118, 112, 38, 53, 81, 88, 4, 95, 55, 71, 116, 69, 81, 102, 56, 86, 81, 93, 68, 43, 69, 86, 53, 90, 8, 93, 49, 68, 95, 75, 98, 106, 21, 58, 76, 49, 76, 57, 92, 96, 15, 35, 4, 36, 80, 18, 76, 73, 115, 58, 91, 28, 39, 102, 77, 1, 59, 81, 20, 86, 127, 60, 86, 92, 89, 74, 89, 98, 104, 74, 60, 61, 55, 95, 64, 117, 116, 68, 64, 93, 93, 87, 103, 45, 93, 88, 72, 89, 94, 97, 94, 75, 134, 94, 40, 53, 35, 70, 39, 68, 31, 119, 53, 113, 25, 65, 67, 58, 47, 28, 42, 89, 85, 84, 76, 86, 69, 13, 86, 61, 22, 48, 37, 55, 80, 64, 34, 91, 92, 13, 117, 121, 64, 61, 89, 85, 60, 43, 22, 98, 21, 19, 81, 68, 67, 120, 95, 129, 97, 34, 38
              |21, 70, 21, 31, 27, 73, 56, 70, 108, 42, 17, 66, 11, 81, 75, 39, 76, 33, 25, 88, 81, 66, 65, 79, 70, 68, 37, 29, 80, 98, 32, 76, 61, 26, 42, 21, 58, 72, 20, 66, 20, 1, 54, 76, 49, 41, 75, 67, 86, 84, 79, 73, 22, 82, 46, 70, 84, 30, 34, 63, 6, 36, 59, 20, 67, 8, 111, 22, 31, 60, 82, 24, 39, 67, 51, 80, 30, 29, 96, 98, 66, 53, 59, 30, 52, 25, 67, 114, 53, 76, 71, 70, 43, 104, 74, 24, 7, 77, 16, 18, 71, 70, 43, 70, 74, 16, 87, 54, 15, 85, 91, 107, 40, 61, 64, 87, 99, 84, 10, 18, 17, 60, 37, 94, 84, 74, 24, 59, 94, 44, 65, 54, 33, 91, 38, 69, 27, 57, 65, 68, 54, 88, 114, 35, 81, 65, 70, 36, 66, 74, 81, 48, 83, 66, 79, 13, 30, 43, 76, 34, 39, 23, 88, 52, 72, 37, 61, 91, 93, 52, 30, 56, 40, 98, 65, 66, 18, 88, 62, 76, 75, 12, 90, 16, 60, 38, 32, 78, 96, 71, 72, 68, 74, 97, 81, 77, 83, 92, 80, 46
              |121, 41, 106, 92, 101, 39, 62, 78, 12, 78, 120, 45, 95, 62, 64, 79, 59, 76, 90, 15, 40, 48, 69, 81, 38, 54, 80, 103, 27, 21, 92, 59, 49, 98, 98, 100, 58, 90, 115, 57, 92, 104, 54, 64, 62, 64, 28, 68, 33, 58, 55, 56, 100, 21, 67, 92, 27, 76, 70, 83, 105, 72, 67, 89, 40, 102, 14, 81, 96, 43, 23, 105, 77, 97, 66, 46, 73, 97, 21, 12, 64, 96, 47, 76, 58, 81, 42, 19, 67, 81, 60, 94, 77, 22, 77, 82, 109, 62, 93, 118, 67, 56, 88, 33, 96, 91, 17, 87, 117, 73, 38, 17, 78, 50, 40, 18, 10, 38, 94, 107, 87, 48, 86, 34, 56, 68, 79, 45, 12, 75, 44, 75, 80, 15, 76, 35, 91, 59, 53, 46, 50, 81, 17, 85, 42, 61, 34, 100, 38, 64, 64, 58, 52, 70, 31, 91, 75, 67, 67, 102, 76, 91, 15, 52, 36, 67, 94, 12, 38, 89, 82, 64, 65, 17, 40, 62, 118, 19, 88, 67, 75, 93, 36, 108, 48, 66, 101, 74, 14, 74, 76, 36, 31, 32, 65, 36, 79, 19, 62, 72
              |76, 11, 74, 42, 73, 47, 54, 79, 62, 60, 79, 7, 58, 25, 71, 59, 19, 49, 42, 40, 19, 49, 19, 37, 15, 57, 58, 75, 43, 59, 68, 19, 44, 49, 78, 52, 51, 89, 68, 58, 46, 63, 41, 72, 14, 40, 30, 69, 57, 25, 20, 63, 69, 36, 17, 89, 26, 47, 30, 32, 67, 26, 15, 56, 13, 58, 65, 42, 70, 26, 30, 74, 27, 91, 14, 61, 35, 47, 57, 42, 15, 83, 37, 32, 44, 38, 43, 69, 14, 84, 65, 90, 60, 65, 81, 39, 69, 22, 59, 72, 71, 61, 36, 25, 94, 57, 41, 76, 73, 35, 64, 64, 27, 4, 23, 35, 44, 22, 52, 73, 52, 41, 35, 64, 25, 24, 40, 31, 41, 23, 9, 22, 55, 38, 27, 29, 42, 7, 4, 7, 18, 42, 68, 62, 59, 61, 33, 77, 31, 70, 26, 40, 23, 70, 46, 52, 43, 47, 75, 77, 26, 43, 40, 17, 17, 29, 85, 42, 66, 77, 55, 57, 39, 57, 35, 63, 72, 33, 81, 25, 30, 56, 62, 62, 8, 35, 75, 81, 40, 76, 78, 20, 39, 65, 27, 18, 38, 35, 73, 56
              |100, 39, 79, 77, 73, 9, 31, 47, 30, 49, 95, 41, 70, 68, 34, 50, 62, 49, 73, 21, 48, 18, 67, 84, 35, 23, 51, 74, 6, 18, 64, 62, 20, 82, 68, 82, 28, 59, 95, 26, 73, 81, 26, 35, 51, 39, 19, 37, 9, 66, 61, 26, 73, 18, 55, 61, 35, 51, 50, 79, 81, 57, 62, 63, 35, 81, 33, 60, 67, 25, 25, 77, 64, 66, 57, 17, 52, 81, 16, 34, 62, 65, 21, 57, 29, 62, 13, 35, 59, 51, 30, 64, 48, 24, 47, 63, 85, 66, 67, 97, 36, 25, 77, 23, 65, 66, 17, 56, 94, 79, 16, 27, 65, 43, 25, 26, 34, 47, 72, 80, 63, 20, 73, 17, 64, 70, 58, 23, 29, 64, 39, 68, 52, 30, 63, 19, 74, 53, 50, 44, 35, 87, 35, 56, 13, 30, 15, 71, 18, 34, 70, 32, 60, 39, 2, 67, 50, 39, 38, 73, 63, 73, 20, 37, 32, 47, 63, 22, 18, 59, 55, 34, 40, 19, 16, 31, 97, 30, 57, 71, 77, 69, 14, 89, 40, 42, 72, 44, 34, 43, 45, 28, 9, 18, 71, 39, 84, 35, 33, 42
              |104, 50, 79, 84, 73, 12, 30, 40, 34, 48, 98, 52, 73, 79, 26, 50, 73, 51, 79, 31, 59, 18, 77, 95, 46, 19, 51, 74, 16, 20, 63, 73, 23, 88, 66, 88, 27, 52, 100, 22, 79, 84, 30, 26, 60, 43, 30, 31, 5, 77, 72, 19, 74, 29, 64, 54, 46, 54, 56, 89, 83, 64, 72, 65, 46, 85, 36, 64, 67, 33, 35, 77, 71, 60, 66, 8, 58, 88, 18, 43, 73, 61, 27, 64, 32, 68, 17, 36, 68, 43, 23, 57, 47, 24, 39, 68, 88, 77, 70, 101, 29, 20, 85, 33, 58, 68, 27, 52, 98, 90, 8, 30, 73, 53, 35, 36, 42, 58, 77, 81, 66, 24, 81, 11, 75, 81, 63, 30, 39, 72, 49, 77, 53, 39, 71, 29, 81, 63, 60, 54, 44, 98, 38, 56, 4, 25, 25, 69, 27, 26, 81, 35, 71, 33, 13, 71, 54, 40, 29, 72, 70, 79, 29, 46, 43, 53, 58, 31, 10, 55, 56, 32, 43, 23, 24, 26, 101, 40, 51, 81, 87, 72, 6, 93, 50, 47, 71, 36, 44, 36, 38, 38, 19, 13, 81, 50, 94, 45, 24, 41
              |71, 85, 35, 77, 27, 59, 37, 28, 97, 25, 59, 83, 44, 109, 40, 26, 103, 37, 70, 86, 98, 50, 98, 116, 83, 45, 27, 26, 71, 83, 22, 103, 50, 76, 12, 72, 41, 22, 74, 42, 66, 55, 48, 41, 75, 45, 77, 33, 68, 110, 104, 45, 33, 81, 76, 19, 93, 40, 58, 103, 49, 68, 91, 38, 80, 61, 99, 53, 23, 64, 85, 32, 76, 14, 81, 56, 54, 78, 81, 99, 96, 2, 55, 62, 44, 60, 57, 100, 84, 31, 41, 17, 25, 88, 31, 60, 52, 106, 39, 71, 36, 44, 87, 74, 21, 40, 83, 11, 65, 118, 68, 93, 78, 81, 69, 88, 99, 100, 55, 39, 44, 52, 80, 72, 109, 106, 53, 59, 94, 80, 81, 90, 30, 93, 74, 70, 72, 84, 88, 87, 68, 123, 101, 24, 59, 38, 68, 18, 66, 40, 110, 46, 107, 31, 67, 49, 44, 38, 39, 21, 75, 68, 85, 68, 82, 57, 9, 88, 70, 9, 32, 34, 45, 86, 61, 37, 71, 92, 14, 108, 110, 45, 69, 70, 78, 49, 22, 36, 98, 31, 30, 76, 68, 76, 111, 91, 119, 97, 45, 29
              |54, 35, 61, 18, 62, 61, 59, 83, 85, 58, 59, 31, 44, 37, 79, 55, 33, 44, 20, 62, 42, 60, 21, 36, 37, 66, 54, 64, 61, 79, 60, 33, 54, 25, 71, 29, 58, 90, 45, 66, 25, 44, 48, 80, 14, 40, 50, 74, 73, 40, 36, 73, 57, 57, 9, 90, 50, 40, 23, 22, 50, 13, 15, 45, 35, 38, 87, 29, 61, 40, 53, 62, 5, 90, 10, 74, 26, 23, 77, 66, 22, 79, 47, 19, 49, 22, 56, 91, 10, 89, 74, 91, 58, 85, 86, 23, 51, 33, 47, 50, 77, 70, 13, 45, 95, 45, 62, 75, 52, 41, 80, 85, 4, 26, 40, 57, 68, 45, 35, 59, 40, 51, 11, 82, 41, 30, 28, 43, 64, 1, 31, 10, 50, 61, 7, 46, 20, 17, 25, 31, 29, 44, 90, 57, 73, 68, 50, 69, 47, 78, 37, 44, 41, 75, 63, 37, 37, 48, 82, 68, 6, 22, 62, 27, 40, 25, 84, 64, 82, 74, 49, 61, 39, 77, 49, 70, 50, 57, 82, 32, 32, 42, 78, 40, 27, 34, 66, 87, 64, 81, 83, 40, 56, 83, 37, 42, 40, 59, 82, 57
              |90, 79, 55, 87, 47, 45, 28, 5, 79, 30, 79, 79, 59, 107, 19, 33, 100, 43, 80, 73, 92, 37, 99, 117, 76, 29, 35, 46, 57, 65, 38, 100, 40, 87, 33, 84, 31, 7, 90, 27, 77, 71, 41, 19, 76, 45, 66, 15, 50, 107, 101, 26, 51, 69, 78, 9, 83, 47, 62, 106, 66, 72, 92, 51, 74, 76, 81, 61, 41, 57, 74, 52, 81, 16, 83, 37, 60, 89, 63, 86, 96, 23, 47, 68, 38, 69, 45, 81, 86, 7, 22, 12, 29, 68, 7, 68, 71, 104, 54, 88, 16, 27, 94, 65, 13, 54, 69, 17, 83, 117, 48, 74, 83, 78, 62, 76, 85, 92, 68, 59, 55, 43, 87, 52, 105, 105, 61, 52, 81, 84, 76, 93, 39, 81, 80, 60, 82, 84, 86, 82, 64, 123, 82, 35, 41, 23, 58, 39, 56, 19, 108, 43, 102, 13, 52, 61, 50, 37, 16, 42, 80, 79, 71, 65, 75, 60, 16, 74, 50, 19, 41, 25, 46, 68, 51, 22, 88, 80, 10, 107, 111, 59, 49, 85, 74, 51, 42, 12, 85, 9, 7, 69, 55, 56, 109, 84, 119, 85, 23, 29
              |103, 22, 90, 73, 86, 31, 50, 71, 29, 65, 102, 26, 77, 47, 59, 65, 42, 60, 71, 7, 25, 39, 51, 65, 19, 46, 65, 88, 20, 29, 78, 42, 37, 79, 85, 81, 47, 83, 96, 49, 73, 86, 40, 60, 43, 49, 11, 61, 33, 43, 39, 51, 84, 7, 47, 84, 11, 60, 51, 64, 88, 53, 48, 72, 21, 84, 32, 63, 81, 26, 4, 89, 57, 89, 47, 43, 55, 77, 27, 13, 46, 85, 33, 57, 44, 63, 31, 36, 47, 75, 54, 87, 64, 33, 72, 63, 91, 46, 76, 99, 60, 49, 68, 15, 89, 74, 10, 77, 98, 58, 39, 31, 58, 30, 22, 1, 13, 23, 76, 90, 70, 35, 67, 38, 41, 51, 61, 29, 9, 55, 25, 56, 65, 6, 57, 18, 72, 40, 34, 27, 31, 66, 35, 71, 39, 53, 19, 87, 22, 59, 49, 43, 37, 63, 24, 73, 58, 52, 63, 88, 56, 71, 8, 33, 16, 49, 85, 9, 40, 78, 67, 54, 49, 25, 26, 54, 99, 4, 79, 51, 58, 76, 37, 89, 29, 48, 86, 69, 11, 67, 69, 17, 20, 38, 50, 18, 64, 9, 59, 59
              |39, 74, 6, 49, 6, 65, 44, 52, 103, 26, 28, 71, 14, 92, 60, 24, 86, 25, 42, 86, 87, 56, 77, 93, 73, 56, 23, 8, 74, 91, 13, 86, 53, 45, 20, 41, 47, 52, 41, 53, 37, 22, 47, 60, 57, 36, 74, 51, 77, 94, 88, 59, 0, 80, 56, 50, 86, 25, 39, 78, 16, 46, 71, 13, 70, 30, 106, 28, 10, 58, 81, 5, 52, 46, 61, 69, 34, 48, 88, 97, 77, 32, 53, 39, 44, 35, 60, 108, 64, 57, 57, 49, 28, 97, 56, 34, 20, 88, 11, 38, 55, 57, 60, 69, 53, 13, 84, 34, 33, 98, 81, 100, 54, 67, 63, 86, 98, 89, 25, 8, 18, 53, 53, 84, 93, 86, 30, 55, 93, 57, 69, 67, 21, 91, 51, 66, 44, 66, 73, 74, 56, 102, 108, 19, 71, 51, 67, 15, 63, 59, 92, 42, 92, 50, 72, 20, 27, 34, 60, 13, 51, 40, 85, 55, 74, 40, 40, 88, 83, 32, 18, 43, 36, 92, 60, 52, 38, 88, 42, 88, 89, 16, 80, 38, 65, 36, 11, 60, 96, 53, 54, 69, 69, 87, 92, 81, 97, 92, 64, 33
              |103, 46, 80, 82, 73, 10, 31, 43, 32, 49, 98, 48, 72, 75, 30, 50, 69, 51, 77, 27, 54, 18, 74, 91, 42, 21, 52, 75, 12, 18, 64, 69, 22, 86, 67, 86, 27, 55, 98, 24, 77, 84, 29, 30, 57, 42, 26, 34, 4, 72, 68, 22, 74, 25, 61, 57, 42, 53, 54, 86, 83, 62, 69, 65, 42, 84, 34, 63, 67, 30, 31, 78, 69, 63, 63, 12, 56, 86, 16, 39, 69, 64, 25, 62, 31, 66, 16, 35, 65, 46, 26, 60, 48, 23, 43, 67, 87, 73, 69, 100, 32, 22, 83, 29, 61, 68, 23, 54, 97, 86, 10, 28, 71, 50, 31, 32, 38, 54, 75, 82, 65, 22, 78, 12, 71, 77, 61, 28, 34, 69, 45, 74, 53, 35, 68, 25, 79, 59, 57, 51, 41, 94, 36, 56, 8, 27, 21, 71, 24, 29, 77, 34, 67, 36, 9, 70, 53, 40, 33, 73, 68, 77, 25, 43, 39, 51, 60, 27, 12, 57, 56, 33, 42, 20, 21, 28, 100, 36, 54, 77, 84, 71, 8, 92, 47, 46, 72, 40, 39, 39, 41, 34, 16, 14, 77, 46, 90, 41, 28, 42
              |40, 59, 20, 37, 19, 54, 37, 52, 92, 23, 33, 56, 8, 77, 56, 20, 71, 14, 30, 73, 72, 47, 63, 79, 59, 49, 18, 22, 63, 81, 18, 71, 42, 36, 29, 32, 39, 55, 38, 47, 26, 20, 36, 57, 42, 24, 60, 48, 68, 79, 73, 53, 15, 67, 41, 54, 72, 11, 24, 65, 18, 31, 56, 2, 56, 24, 94, 14, 18, 45, 67, 20, 38, 52, 46, 61, 19, 38, 78, 84, 62, 39, 41, 24, 33, 21, 50, 97, 49, 58, 52, 54, 24, 86, 56, 21, 23, 73, 5, 38, 52, 51, 47, 56, 58, 4, 71, 37, 34, 83, 72, 89, 40, 52, 49, 72, 84, 74, 16, 20, 4, 42, 40, 75, 78, 72, 15, 43, 79, 43, 54, 53, 14, 77, 36, 53, 32, 51, 57, 59, 42, 87, 97, 17, 62, 46, 54, 26, 50, 55, 77, 30, 77, 48, 61, 9, 13, 24, 57, 25, 37, 28, 72, 40, 59, 25, 45, 76, 74, 36, 11, 36, 23, 81, 48, 46, 38, 74, 45, 73, 74, 7, 71, 33, 50, 22, 22, 59, 82, 52, 53, 55, 57, 78, 77, 66, 83, 78, 60, 27
              |99, 60, 70, 85, 63, 21, 22, 24, 50, 39, 91, 61, 67, 89, 10, 41, 83, 46, 79, 46, 71, 18, 85, 103, 56, 11, 43, 64, 31, 36, 53, 83, 24, 88, 54, 86, 21, 36, 96, 13, 78, 79, 29, 10, 65, 40, 42, 17, 21, 88, 82, 6, 65, 43, 69, 38, 60, 49, 57, 96, 77, 66, 79, 59, 55, 82, 52, 62, 57, 40, 49, 68, 74, 44, 72, 8, 57, 88, 34, 59, 81, 47, 30, 64, 29, 67, 23, 51, 74, 26, 9, 41, 37, 39, 23, 67, 81, 87, 63, 97, 13, 9, 88, 44, 42, 62, 42, 38, 93, 100, 19, 45, 77, 62, 43, 51, 58, 71, 73, 73, 61, 26, 83, 24, 86, 90, 61, 35, 54, 76, 58, 83, 46, 55, 73, 39, 81, 70, 69, 64, 50, 108, 53, 46, 12, 14, 35, 58, 36, 10, 91, 34, 82, 18, 26, 67, 50, 35, 13, 61, 73, 79, 45, 52, 54, 54, 43, 47, 21, 41, 49, 23, 41, 39, 31, 13, 97, 55, 36, 91, 96, 66, 20, 91, 58, 46, 60, 20, 59, 20, 22, 49, 31, 27, 92, 62, 104, 60, 8, 33
              |42, 58, 21, 39, 20, 52, 34, 50, 90, 21, 35, 55, 10, 76, 54, 18, 70, 11, 31, 71, 71, 45, 63, 79, 57, 47, 16, 22, 61, 79, 17, 70, 40, 37, 28, 34, 36, 54, 40, 44, 27, 22, 34, 55, 41, 22, 59, 46, 66, 78, 73, 51, 16, 65, 41, 52, 70, 9, 24, 65, 21, 31, 56, 3, 54, 26, 92, 14, 18, 43, 66, 21, 38, 51, 46, 59, 19, 39, 76, 82, 62, 38, 39, 24, 31, 22, 47, 95, 49, 56, 50, 52, 22, 84, 54, 21, 25, 72, 7, 40, 50, 48, 48, 54, 56, 6, 69, 36, 36, 83, 70, 87, 40, 51, 47, 71, 83, 73, 18, 21, 5, 40, 41, 73, 78, 71, 15, 41, 78, 43, 53, 53, 12, 76, 37, 51, 34, 51, 57, 58, 40, 87, 95, 16, 60, 44, 52, 25, 48, 53, 77, 28, 76, 45, 59, 11, 11, 22, 55, 25, 37, 30, 71, 39, 58, 24, 44, 74, 72, 35, 9, 34, 21, 79, 46, 44, 40, 72, 44, 73, 74, 9, 69, 35, 49, 21, 22, 57, 80, 50, 51, 54, 55, 76, 77, 65, 83, 77, 58, 25
              |75, 71, 41, 72, 33, 42, 20, 16, 80, 15, 65, 69, 44, 97, 25, 18, 90, 29, 65, 69, 84, 33, 87, 105, 68, 28, 20, 33, 54, 66, 24, 90, 34, 72, 21, 69, 24, 19, 75, 25, 62, 56, 32, 25, 64, 33, 60, 16, 51, 97, 91, 28, 37, 64, 66, 18, 77, 33, 49, 93, 52, 59, 80, 36, 66, 61, 82, 47, 27, 49, 68, 38, 67, 19, 71, 39, 46, 74, 64, 82, 84, 15, 39, 54, 29, 54, 40, 83, 74, 21, 24, 19, 14, 71, 20, 54, 56, 93, 39, 73, 21, 27, 80, 59, 23, 39, 66, 6, 69, 106, 51, 76, 70, 68, 54, 72, 82, 85, 53, 45, 40, 36, 73, 56, 96, 94, 47, 44, 77, 71, 67, 80, 24, 77, 66, 54, 68, 72, 75, 73, 54, 112, 84, 20, 42, 21, 52, 26, 50, 24, 98, 32, 93, 15, 50, 46, 36, 25, 24, 29, 67, 64, 68, 54, 67, 47, 14, 71, 53, 9, 26, 17, 33, 68, 45, 20, 73, 75, 10, 96, 99, 44, 52, 70, 64, 38, 29, 24, 81, 17, 17, 61, 51, 59, 98, 76, 108, 80, 30, 16
              |52, 75, 17, 58, 9, 58, 36, 40, 97, 18, 41, 72, 25, 96, 49, 17, 90, 23, 51, 82, 88, 49, 83, 100, 73, 47, 16, 9, 69, 85, 4, 90, 47, 56, 8, 52, 39, 39, 54, 44, 47, 35, 42, 49, 61, 34, 71, 40, 70, 97, 91, 50, 13, 76, 61, 37, 85, 25, 43, 86, 29, 52, 76, 19, 70, 41, 100, 35, 3, 56, 79, 14, 59, 33, 66, 60, 38, 59, 82, 94, 81, 19, 49, 45, 38, 43, 54, 101, 69, 45, 47, 36, 19, 90, 44, 42, 33, 92, 20, 51, 44, 48, 69, 67, 40, 21, 80, 22, 46, 103, 72, 94, 61, 69, 61, 83, 95, 90, 36, 20, 25, 48, 62, 76, 96, 91, 36, 52, 89, 63, 70, 73, 17, 88, 57, 64, 53, 70, 75, 76, 57, 108, 102, 11, 62, 42, 63, 5, 60, 48, 96, 38, 94, 39, 66, 29, 29, 29, 49, 6, 58, 49, 81, 56, 73, 43, 27, 84, 74, 19, 16, 34, 34, 86, 56, 42, 51, 85, 29, 93, 95, 26, 72, 50, 66, 37, 5, 48, 93, 42, 42, 68, 65, 79, 97, 81, 103, 90, 54, 25
              |77, 42, 90, 41, 91, 80, 84, 108, 92, 86, 85, 39, 72, 21, 103, 83, 22, 72, 47, 70, 40, 81, 14, 7, 46, 89, 82, 94, 76, 91, 89, 22, 76, 48, 100, 53, 82, 117, 67, 89, 52, 71, 72, 104, 35, 67, 62, 99, 90, 26, 26, 95, 86, 67, 33, 117, 54, 69, 51, 9, 77, 41, 20, 74, 46, 64, 94, 58, 90, 59, 61, 91, 34, 118, 28, 94, 55, 45, 89, 69, 18, 108, 68, 48, 74, 51, 76, 99, 26, 115, 97, 118, 86, 96, 111, 52, 78, 19, 76, 73, 102, 93, 29, 58, 122, 74, 72, 103, 76, 16, 97, 94, 33, 37, 56, 64, 71, 43, 63, 87, 69, 73, 35, 97, 27, 13, 57, 63, 69, 30, 42, 19, 79, 66, 36, 62, 45, 29, 30, 37, 49, 16, 97, 85, 92, 92, 66, 98, 64, 102, 19, 69, 30, 100, 79, 66, 65, 75, 106, 97, 35, 49, 71, 47, 49, 52, 112, 72, 99, 103, 78, 86, 66, 88, 68, 94, 73, 62, 109, 14, 7, 71, 95, 63, 41, 61, 95, 112, 67, 106, 108, 53, 72, 98, 18, 45, 12, 61, 105, 84
              |8, 85, 29, 39, 37, 89, 72, 84, 125, 56, 6, 81, 27, 93, 90, 53, 88, 49, 35, 104, 96, 82, 76, 87, 85, 84, 52, 38, 96, 115, 45, 88, 77, 32, 52, 27, 74, 84, 15, 81, 31, 16, 70, 91, 63, 57, 91, 82, 103, 96, 92, 88, 32, 98, 59, 82, 99, 46, 50, 71, 17, 50, 71, 35, 82, 18, 127, 38, 42, 76, 97, 32, 51, 78, 64, 96, 46, 35, 112, 113, 78, 64, 75, 45, 68, 39, 84, 130, 65, 89, 86, 81, 58, 120, 88, 38, 13, 89, 31, 9, 86, 85, 51, 86, 85, 32, 103, 66, 4, 95, 107, 123, 52, 76, 79, 102, 114, 98, 25, 25, 34, 77, 46, 110, 96, 85, 40, 75, 110, 56, 80, 64, 48, 107, 50, 85, 36, 71, 78, 83, 70, 96, 130, 49, 97, 81, 86, 46, 82, 89, 92, 65, 96, 81, 95, 29, 46, 59, 91, 43, 51, 34, 104, 68, 87, 52, 72, 107, 109, 64, 45, 71, 57, 115, 81, 81, 9, 103, 74, 87, 85, 28, 106, 17, 75, 54, 42, 92, 111, 85, 85, 84, 91, 113, 92, 92, 92, 107, 95, 61
              |94, 80, 60, 90, 52, 43, 29, 4, 76, 33, 83, 79, 63, 107, 16, 36, 101, 46, 83, 71, 92, 36, 100, 119, 76, 28, 38, 51, 55, 62, 43, 101, 40, 90, 38, 88, 32, 10, 94, 26, 80, 75, 42, 16, 78, 47, 65, 14, 47, 107, 101, 24, 56, 67, 80, 13, 82, 50, 64, 108, 71, 75, 93, 55, 75, 80, 78, 65, 46, 57, 72, 57, 83, 20, 85, 34, 63, 92, 60, 84, 97, 28, 47, 70, 39, 72, 44, 77, 87, 2, 20, 16, 32, 65, 3, 71, 75, 105, 58, 92, 14, 25, 97, 65, 16, 58, 67, 22, 88, 118, 45, 71, 85, 79, 62, 75, 84, 92, 72, 63, 59, 43, 90, 49, 106, 106, 64, 52, 79, 86, 76, 95, 42, 79, 82, 60, 85, 85, 86, 83, 65, 124, 79, 39, 38, 22, 57, 44, 56, 16, 109, 44, 102, 13, 51, 65, 53, 39, 13, 47, 82, 82, 70, 66, 74, 62, 21, 72, 46, 24, 45, 27, 48, 65, 51, 21, 92, 79, 15, 108, 112, 63, 46, 89, 75, 53, 47, 8, 84, 7, 5, 69, 54, 52, 110, 83, 120, 84, 19, 31
              |77, 31, 85, 40, 86, 69, 74, 99, 81, 77, 83, 28, 68, 14, 93, 76, 13, 65, 44, 59, 30, 71, 4, 15, 35, 79, 74, 88, 65, 80, 82, 13, 65, 48, 93, 52, 72, 108, 67, 79, 49, 68, 62, 94, 26, 58, 51, 90, 79, 19, 17, 85, 81, 56, 26, 108, 43, 62, 44, 14, 74, 35, 11, 69, 35, 62, 83, 53, 84, 48, 50, 86, 30, 110, 20, 83, 48, 45, 78, 59, 7, 100, 58, 42, 64, 46, 65, 88, 17, 105, 87, 110, 77, 85, 102, 47, 75, 11, 70, 73, 92, 82, 29, 47, 113, 68, 61, 94, 75, 17, 86, 83, 28, 27, 46, 53, 60, 33, 59, 83, 63, 63, 33, 86, 20, 6, 51, 53, 58, 25, 31, 15, 71, 55, 31, 51, 43, 19, 19, 26, 39, 21, 86, 78, 81, 82, 55, 91, 53, 92, 14, 60, 22, 91, 68, 61, 58, 66, 96, 91, 30, 46, 60, 37, 38, 44, 103, 61, 88, 94, 70, 77, 57, 77, 57, 84, 73, 51, 100, 8, 8, 66, 84, 62, 30, 52, 89, 102, 56, 97, 99, 42, 61, 87, 13, 34, 17, 51, 95, 75
              |75, 24, 80, 39, 80, 61, 67, 92, 75, 71, 80, 21, 63, 16, 85, 69, 11, 58, 41, 52, 25, 63, 5, 23, 28, 71, 68, 83, 58, 73, 76, 11, 58, 46, 87, 50, 64, 101, 66, 72, 46, 65, 54, 86, 20, 51, 44, 82, 71, 19, 15, 77, 76, 49, 20, 101, 37, 55, 38, 19, 70, 30, 6, 63, 27, 59, 77, 48, 78, 41, 43, 81, 26, 103, 15, 76, 42, 44, 71, 53, 1, 93, 51, 37, 57, 41, 57, 82, 12, 98, 79, 103, 71, 78, 94, 42, 72, 12, 65, 71, 84, 75, 29, 39, 106, 63, 54, 87, 73, 22, 78, 77, 25, 19, 38, 47, 55, 28, 55, 78, 58, 55, 32, 79, 20, 11, 46, 45, 52, 21, 23, 14, 65, 49, 27, 43, 41, 11, 12, 19, 31, 28, 80, 72, 73, 75, 47, 85, 45, 84, 16, 52, 20, 83, 60, 57, 52, 59, 89, 85, 26, 43, 53, 30, 31, 38, 97, 55, 80, 88, 64, 70, 50, 70, 49, 76, 71, 45, 93, 13, 16, 61, 76, 61, 22, 46, 83, 94, 51, 89, 91, 34, 53, 79, 16, 28, 24, 45, 87, 68
              |19, 66, 36, 19, 41, 77, 64, 81, 110, 52, 24, 62, 23, 73, 84, 49, 68, 40, 16, 88, 77, 71, 56, 68, 68, 75, 47, 43, 82, 101, 45, 68, 66, 13, 55, 7, 65, 84, 11, 73, 12, 13, 59, 85, 44, 46, 76, 76, 91, 76, 72, 80, 35, 83, 40, 83, 82, 37, 34, 52, 21, 32, 51, 30, 65, 6, 113, 24, 44, 61, 81, 38, 31, 80, 44, 86, 31, 16, 98, 96, 58, 66, 62, 28, 58, 22, 72, 116, 46, 87, 79, 82, 53, 107, 85, 21, 19, 69, 28, 15, 81, 77, 31, 70, 86, 27, 88, 66, 16, 75, 96, 109, 32, 57, 64, 86, 97, 79, 13, 32, 26, 65, 26, 99, 76, 65, 26, 61, 93, 36, 62, 44, 43, 90, 31, 69, 16, 51, 59, 64, 53, 77, 116, 46, 87, 73, 72, 50, 68, 83, 72, 53, 76, 76, 82, 20, 35, 50, 85, 48, 32, 14, 88, 51, 69, 37, 73, 91, 98, 65, 40, 64, 45, 101, 68, 74, 15, 86, 74, 67, 65, 22, 95, 5, 57, 42, 46, 88, 94, 81, 82, 67, 77, 101, 72, 74, 72, 90, 88, 55
              |80, 10, 78, 45, 77, 48, 57, 81, 61, 64, 82, 7, 62, 22, 74, 62, 16, 52, 46, 39, 16, 51, 19, 36, 14, 59, 61, 79, 44, 59, 72, 16, 46, 52, 82, 55, 54, 92, 71, 60, 49, 66, 44, 74, 17, 43, 30, 71, 57, 22, 16, 65, 73, 35, 21, 92, 24, 50, 34, 32, 71, 30, 16, 60, 13, 62, 64, 46, 74, 29, 29, 78, 30, 94, 17, 63, 39, 50, 57, 40, 14, 86, 39, 36, 47, 42, 45, 68, 17, 87, 68, 94, 63, 64, 83, 43, 73, 19, 63, 76, 73, 63, 38, 26, 97, 61, 40, 79, 77, 32, 65, 63, 30, 7, 25, 33, 42, 18, 56, 77, 56, 43, 38, 65, 21, 22, 44, 33, 39, 26, 10, 24, 59, 36, 30, 30, 46, 10, 2, 5, 21, 39, 67, 66, 60, 64, 34, 81, 32, 73, 23, 43, 19, 73, 47, 56, 47, 51, 77, 81, 30, 47, 39, 21, 17, 33, 89, 41, 66, 80, 59, 60, 43, 56, 37, 65, 76, 31, 85, 23, 28, 60, 63, 65, 11, 39, 79, 83, 38, 79, 81, 21, 40, 65, 24, 15, 36, 33, 75, 60
              |23, 73, 16, 36, 22, 72, 54, 67, 109, 39, 16, 69, 10, 85, 72, 36, 80, 31, 30, 89, 85, 65, 70, 84, 73, 66, 34, 24, 80, 98, 28, 80, 60, 31, 37, 26, 56, 68, 25, 64, 25, 6, 54, 73, 52, 41, 77, 64, 86, 88, 83, 71, 16, 84, 50, 66, 86, 29, 37, 68, 1, 40, 63, 17, 70, 14, 112, 24, 26, 61, 83, 18, 43, 63, 55, 79, 32, 34, 95, 99, 70, 49, 59, 33, 51, 28, 67, 114, 57, 73, 69, 65, 40, 104, 71, 27, 5, 81, 13, 22, 69, 68, 48, 72, 69, 14, 88, 50, 17, 90, 90, 107, 45, 64, 65, 88, 100, 87, 14, 12, 17, 60, 42, 93, 88, 79, 26, 59, 95, 49, 67, 58, 31, 93, 42, 70, 32, 61, 68, 71, 56, 92, 114, 32, 80, 63, 71, 31, 67, 72, 85, 48, 87, 64, 79, 14, 30, 42, 73, 29, 43, 28, 89, 54, 74, 39, 56, 92, 92, 48, 28, 54, 40, 98, 65, 64, 22, 89, 58, 81, 80, 11, 89, 21, 63, 39, 27, 75, 98, 68, 68, 70, 75, 96, 85, 80, 88, 94, 77, 44
              |15, 81, 21, 39, 29, 82, 64, 76, 119, 48, 6, 77, 20, 91, 82, 46, 86, 41, 34, 99, 92, 75, 75, 88, 81, 76, 44, 30, 90, 108, 36, 86, 70, 33, 44, 28, 66, 76, 20, 74, 29, 10, 64, 83, 59, 51, 86, 74, 96, 94, 89, 81, 24, 93, 57, 74, 95, 39, 45, 72, 9, 47, 69, 27, 78, 16, 121, 33, 34, 70, 92, 24, 49, 70, 61, 89, 41, 36, 105, 108, 76, 56, 69, 41, 61, 35, 77, 124, 63, 81, 79, 73, 50, 114, 80, 34, 5, 87, 23, 15, 78, 78, 51, 81, 77, 24, 97, 58, 9, 94, 100, 117, 50, 72, 74, 97, 109, 95, 21, 17, 27, 70, 46, 103, 94, 84, 35, 69, 104, 54, 76, 63, 41, 102, 48, 79, 35, 68, 76, 79, 65, 97, 124, 41, 90, 73, 81, 38, 76, 81, 91, 58, 94, 73, 88, 23, 40, 52, 83, 35, 49, 32, 98, 63, 82, 47, 64, 102, 102, 56, 38, 64, 50, 108, 75, 73, 15, 98, 66, 86, 85, 21, 99, 19, 71, 48, 34, 84, 106, 77, 77, 79, 84, 106, 91, 88, 92, 102, 87, 54
              |100, 65, 70, 88, 63, 25, 24, 21, 54, 39, 92, 66, 68, 94, 7, 42, 88, 48, 82, 51, 76, 22, 89, 108, 61, 14, 43, 63, 36, 40, 53, 88, 28, 90, 52, 89, 24, 32, 98, 15, 80, 81, 33, 6, 69, 43, 47, 15, 26, 93, 87, 8, 65, 48, 73, 34, 65, 51, 60, 100, 78, 70, 83, 60, 60, 84, 56, 64, 56, 44, 54, 68, 78, 41, 76, 13, 60, 91, 38, 64, 85, 45, 35, 67, 32, 70, 28, 55, 78, 22, 9, 37, 38, 43, 19, 70, 82, 92, 64, 98, 11, 11, 92, 49, 38, 63, 47, 37, 94, 105, 23, 49, 80, 66, 48, 56, 63, 76, 75, 73, 63, 30, 86, 27, 91, 95, 63, 40, 59, 80, 63, 87, 47, 60, 77, 44, 84, 74, 74, 69, 54, 112, 57, 47, 17, 15, 40, 57, 41, 7, 96, 37, 87, 16, 31, 68, 53, 37, 9, 60, 77, 81, 50, 56, 59, 57, 40, 52, 24, 39, 50, 24, 44, 43, 36, 14, 98, 60, 34, 96, 101, 68, 24, 92, 63, 49, 60, 15, 64, 17, 18, 53, 36, 30, 97, 67, 108, 65, 3, 34
              |65, 58, 36, 58, 29, 36, 14, 27, 75, 4, 57, 56, 33, 82, 30, 6, 76, 14, 51, 61, 71, 27, 72, 91, 55, 25, 8, 30, 47, 62, 19, 76, 25, 59, 24, 56, 17, 34, 64, 23, 49, 46, 21, 31, 50, 18, 50, 22, 48, 83, 77, 29, 30, 55, 51, 33, 66, 18, 34, 78, 43, 44, 65, 25, 53, 49, 77, 33, 23, 37, 58, 34, 52, 34, 56, 38, 31, 60, 59, 73, 70, 26, 28, 39, 17, 40, 32, 79, 59, 34, 27, 34, 3, 67, 31, 40, 47, 79, 29, 63, 27, 26, 65, 47, 38, 28, 58, 19, 59, 91, 50, 72, 55, 54, 42, 62, 73, 72, 41, 38, 28, 26, 59, 54, 82, 80, 32, 32, 68, 56, 53, 65, 11, 67, 51, 43, 54, 58, 61, 60, 40, 97, 80, 12, 40, 21, 42, 27, 39, 29, 83, 19, 79, 22, 44, 34, 21, 10, 32, 29, 52, 50, 60, 40, 55, 32, 28, 63, 52, 19, 15, 12, 18, 64, 35, 21, 63, 65, 25, 81, 84, 33, 50, 58, 51, 23, 27, 34, 72, 27, 28, 49, 43, 57, 84, 63, 93, 70, 35, 2
              |56, 38, 66, 19, 68, 67, 66, 89, 89, 64, 62, 34, 49, 35, 86, 62, 31, 50, 23, 66, 44, 66, 18, 31, 41, 73, 60, 70, 67, 84, 66, 31, 60, 26, 77, 31, 64, 97, 46, 73, 28, 48, 55, 87, 19, 47, 55, 81, 79, 39, 35, 79, 63, 61, 15, 97, 53, 47, 30, 16, 54, 19, 14, 51, 39, 41, 91, 35, 67, 46, 57, 67, 11, 97, 14, 80, 33, 24, 82, 69, 21, 86, 53, 25, 56, 27, 62, 96, 13, 96, 80, 97, 64, 90, 93, 28, 55, 31, 52, 52, 84, 76, 9, 49, 101, 50, 67, 81, 54, 37, 86, 90, 9, 30, 45, 61, 71, 47, 39, 63, 45, 58, 12, 87, 40, 27, 34, 49, 68, 8, 35, 6, 57, 64, 13, 52, 22, 20, 27, 34, 35, 40, 95, 63, 79, 75, 55, 74, 52, 85, 35, 51, 40, 82, 68, 42, 43, 55, 89, 73, 12, 25, 66, 33, 44, 32, 90, 69, 88, 81, 55, 68, 46, 82, 55, 76, 52, 60, 88, 29, 27, 47, 84, 41, 32, 41, 71, 94, 67, 88, 89, 45, 61, 89, 34, 44, 35, 62, 89, 63
              |106, 44, 84, 83, 78, 13, 35, 48, 27, 53, 101, 47, 76, 73, 35, 55, 67, 54, 79, 23, 52, 22, 73, 89, 40, 25, 56, 79, 10, 13, 68, 67, 25, 88, 72, 88, 32, 60, 101, 29, 80, 87, 32, 35, 57, 45, 24, 39, 4, 70, 66, 27, 78, 22, 62, 62, 39, 57, 56, 85, 86, 63, 68, 69, 41, 87, 29, 66, 72, 31, 28, 82, 70, 68, 63, 16, 59, 88, 11, 35, 68, 68, 27, 64, 35, 68, 18, 30, 65, 51, 31, 65, 52, 19, 48, 69, 91, 71, 73, 103, 37, 27, 83, 28, 66, 71, 19, 59, 100, 84, 11, 23, 72, 49, 31, 28, 34, 51, 78, 85, 69, 25, 80, 11, 68, 75, 64, 29, 30, 70, 44, 74, 57, 31, 69, 25, 81, 59, 56, 49, 42, 92, 31, 61, 12, 32, 21, 75, 24, 34, 75, 38, 64, 41, 8, 73, 56, 44, 38, 77, 69, 79, 21, 44, 37, 53, 65, 23, 13, 62, 60, 38, 45, 15, 22, 33, 103, 33, 59, 76, 82, 74, 9, 95, 46, 48, 76, 44, 35, 44, 46, 33, 15, 12, 76, 44, 89, 37, 33, 47
              |89, 11, 87, 54, 85, 50, 62, 86, 56, 71, 92, 12, 71, 19, 77, 70, 14, 60, 55, 35, 6, 54, 24, 37, 14, 63, 69, 88, 43, 56, 80, 14, 50, 61, 89, 65, 59, 97, 80, 64, 59, 76, 49, 78, 27, 51, 30, 76, 57, 17, 12, 69, 82, 33, 30, 97, 18, 59, 43, 38, 80, 39, 23, 69, 16, 71, 59, 55, 82, 33, 26, 87, 39, 100, 26, 64, 48, 59, 55, 34, 19, 93, 43, 46, 52, 51, 48, 64, 26, 91, 71, 99, 70, 61, 88, 52, 83, 18, 72, 85, 77, 66, 47, 27, 102, 70, 37, 86, 86, 31, 65, 59, 39, 15, 28, 29, 36, 9, 66, 86, 65, 48, 47, 64, 16, 23, 53, 38, 34, 36, 14, 32, 67, 30, 40, 31, 55, 19, 11, 8, 28, 39, 62, 73, 61, 68, 35, 89, 35, 76, 21, 49, 12, 77, 47, 65, 55, 57, 81, 89, 39, 56, 36, 28, 17, 42, 95, 37, 66, 87, 67, 65, 50, 53, 40, 69, 85, 26, 91, 23, 30, 69, 62, 75, 17, 47, 87, 87, 32, 83, 85, 22, 40, 64, 22, 10, 36, 26, 78, 66
              |96, 18, 95, 61, 94, 56, 69, 93, 57, 78, 99, 20, 79, 17, 83, 77, 14, 68, 62, 37, 6, 61, 27, 36, 21, 69, 77, 96, 48, 59, 88, 14, 57, 68, 97, 72, 66, 104, 87, 71, 66, 84, 56, 84, 35, 59, 34, 83, 62, 13, 10, 75, 90, 36, 37, 105, 20, 67, 51, 40, 88, 47, 29, 77, 23, 79, 59, 63, 90, 40, 30, 95, 46, 108, 33, 70, 56, 66, 58, 33, 23, 101, 50, 53, 60, 59, 54, 64, 32, 98, 78, 107, 78, 63, 95, 60, 90, 18, 80, 92, 84, 73, 52, 33, 110, 78, 40, 94, 93, 28, 69, 60, 46, 23, 35, 31, 35, 7, 73, 94, 73, 54, 54, 68, 11, 23, 61, 45, 34, 42, 22, 37, 75, 31, 47, 37, 62, 26, 18, 16, 35, 36, 62, 81, 67, 75, 41, 97, 41, 83, 19, 57, 7, 84, 52, 73, 64, 65, 87, 97, 46, 64, 39, 36, 23, 50, 102, 39, 70, 95, 75, 72, 58, 55, 46, 76, 92, 27, 98, 23, 30, 77, 67, 82, 25, 55, 95, 94, 31, 90, 92, 28, 46, 68, 20, 14, 34, 26, 84, 74
              |85, 8, 76, 55, 73, 32, 44, 68, 46, 55, 85, 10, 62, 37, 59, 55, 31, 47, 53, 23, 20, 36, 36, 53, 4, 45, 54, 75, 26, 42, 66, 31, 32, 61, 75, 63, 41, 79, 78, 46, 55, 69, 32, 59, 25, 36, 13, 58, 40, 36, 30, 50, 71, 19, 30, 80, 16, 46, 34, 49, 72, 35, 32, 58, 4, 67, 49, 47, 69, 15, 14, 76, 39, 83, 29, 46, 39, 60, 40, 29, 31, 77, 26, 40, 35, 45, 29, 53, 30, 73, 53, 82, 54, 48, 70, 46, 75, 35, 62, 82, 59, 48, 51, 9, 85, 60, 24, 69, 81, 48, 48, 47, 40, 13, 10, 19, 30, 21, 59, 76, 55, 29, 49, 48, 34, 39, 45, 20, 26, 38, 8, 39, 53, 23, 39, 13, 54, 24, 19, 13, 15, 56, 52, 59, 43, 50, 17, 75, 16, 58, 39, 33, 30, 59, 29, 57, 44, 42, 62, 76, 39, 54, 24, 17, 3, 32, 78, 26, 49, 71, 54, 47, 36, 40, 21, 51, 82, 19, 73, 40, 46, 60, 45, 72, 11, 34, 74, 69, 27, 65, 67, 4, 22, 48, 40, 12, 53, 23, 60, 50
              |83, 48, 57, 68, 51, 15, 8, 27, 54, 26, 77, 48, 52, 76, 19, 28, 70, 30, 62, 42, 60, 6, 70, 89, 45, 6, 29, 52, 27, 41, 41, 70, 8, 71, 45, 69, 5, 39, 80, 6, 61, 64, 12, 20, 49, 23, 34, 17, 26, 76, 70, 12, 52, 38, 52, 40, 51, 33, 40, 80, 62, 49, 64, 44, 43, 66, 56, 45, 45, 26, 42, 55, 58, 44, 56, 17, 40, 71, 38, 55, 67, 42, 16, 47, 12, 50, 13, 57, 59, 33, 13, 42, 25, 46, 29, 50, 66, 74, 48, 81, 18, 9, 72, 34, 45, 47, 39, 33, 77, 87, 29, 50, 60, 48, 30, 45, 55, 61, 57, 59, 45, 11, 66, 33, 74, 76, 44, 21, 50, 60, 45, 67, 31, 50, 57, 29, 64, 55, 56, 52, 35, 94, 58, 34, 19, 9, 26, 48, 25, 18, 78, 17, 71, 19, 23, 51, 34, 19, 22, 50, 57, 62, 41, 36, 43, 37, 40, 44, 31, 35, 34, 10, 24, 42, 20, 11, 81, 49, 35, 77, 82, 51, 28, 74, 44, 29, 49, 28, 55, 24, 26, 37, 24, 35, 79, 52, 90, 54, 22, 19
              |80, 35, 60, 60, 54, 13, 17, 40, 49, 31, 76, 35, 50, 64, 32, 32, 57, 29, 55, 33, 48, 9, 58, 77, 32, 17, 33, 56, 21, 38, 45, 57, 4, 64, 51, 63, 13, 51, 76, 18, 55, 61, 7, 32, 38, 19, 23, 30, 26, 63, 57, 24, 54, 28, 42, 52, 40, 31, 32, 68, 61, 40, 52, 43, 30, 62, 52, 40, 49, 13, 31, 58, 48, 56, 45, 24, 34, 64, 35, 46, 54, 51, 3, 39, 10, 44, 7, 54, 47, 45, 26, 54, 30, 44, 42, 44, 65, 61, 48, 77, 31, 21, 62, 22, 57, 46, 31, 43, 75, 74, 32, 47, 50, 35, 18, 35, 46, 48, 53, 61, 43, 1, 57, 34, 62, 64, 38, 9, 41, 49, 33, 56, 33, 40, 47, 17, 57, 43, 43, 39, 23, 81, 55, 38, 23, 22, 15, 53, 13, 31, 65, 12, 58, 31, 18, 48, 30, 20, 35, 55, 47, 55, 33, 24, 31, 29, 51, 36, 34, 44, 35, 20, 20, 39, 8, 23, 77, 38, 46, 65, 69, 49, 30, 69, 32, 23, 53, 41, 45, 37, 39, 25, 16, 37, 66, 39, 77, 43, 34, 25
              |48, 44, 35, 32, 34, 45, 33, 54, 80, 27, 45, 41, 20, 62, 54, 24, 56, 13, 25, 60, 57, 40, 49, 67, 44, 44, 23, 36, 52, 70, 30, 56, 34, 33, 40, 32, 33, 60, 43, 42, 23, 29, 27, 55, 28, 15, 47, 47, 59, 64, 58, 49, 30, 54, 27, 60, 57, 9, 9, 53, 30, 18, 42, 17, 41, 29, 83, 8, 31, 32, 54, 35, 26, 59, 33, 55, 5, 34, 67, 70, 48, 48, 31, 12, 26, 13, 40, 86, 35, 60, 49, 60, 27, 76, 58, 13, 34, 59, 20, 44, 51, 46, 38, 42, 64, 18, 59, 44, 42, 69, 64, 79, 28, 37, 35, 59, 71, 59, 20, 34, 13, 33, 32, 67, 64, 58, 6, 30, 66, 30, 39, 40, 19, 64, 25, 40, 27, 37, 43, 44, 27, 74, 86, 25, 55, 43, 42, 38, 38, 53, 63, 22, 62, 48, 51, 16, 6, 20, 56, 38, 25, 24, 60, 25, 45, 10, 53, 63, 67, 43, 18, 34, 14, 70, 37, 44, 44, 60, 51, 60, 61, 18, 63, 37, 35, 10, 36, 60, 68, 53, 55, 41, 46, 69, 63, 52, 70, 64, 58, 27
              |12, 74, 39, 25, 46, 85, 72, 88, 118, 59, 22, 70, 29, 79, 92, 56, 75, 48, 23, 97, 84, 80, 62, 72, 76, 83, 54, 47, 91, 110, 51, 75, 74, 17, 60, 13, 73, 90, 3, 81, 20, 17, 68, 93, 52, 55, 84, 84, 99, 82, 78, 88, 40, 91, 48, 89, 90, 45, 43, 56, 24, 40, 57, 37, 73, 12, 121, 33, 49, 70, 89, 42, 38, 86, 51, 95, 40, 20, 107, 104, 64, 72, 71, 36, 66, 30, 80, 124, 53, 94, 87, 88, 60, 116, 92, 30, 21, 75, 34, 8, 88, 85, 36, 78, 92, 34, 96, 72, 12, 80, 105, 118, 39, 65, 72, 94, 106, 87, 21, 35, 33, 73, 32, 107, 83, 71, 34, 70, 101, 43, 70, 50, 50, 99, 38, 78, 23, 59, 67, 72, 62, 81, 124, 53, 95, 81, 80, 55, 76, 91, 78, 62, 83, 84, 90, 27, 44, 59, 93, 52, 39, 22, 97, 59, 78, 46, 79, 100, 107, 71, 47, 72, 54, 109, 76, 82, 8, 94, 80, 73, 70, 29, 103, 4, 65, 50, 51, 95, 102, 88, 89, 76, 85, 110, 78, 82, 77, 98, 96, 63
              |69, 63, 37, 64, 30, 38, 15, 22, 77, 7, 60, 62, 37, 88, 27, 10, 82, 20, 57, 64, 76, 29, 79, 97, 61, 26, 12, 30, 50, 64, 20, 82, 28, 64, 22, 62, 19, 27, 68, 22, 54, 50, 25, 28, 56, 24, 54, 19, 49, 89, 83, 28, 32, 59, 57, 27, 70, 24, 40, 85, 46, 50, 71, 29, 58, 54, 79, 39, 23, 42, 62, 35, 59, 28, 62, 38, 38, 66, 61, 77, 76, 20, 32, 45, 22, 46, 35, 80, 65, 28, 25, 28, 6, 68, 26, 46, 50, 85, 33, 67, 23, 26, 72, 52, 31, 32, 61, 13, 63, 97, 50, 73, 61, 60, 47, 66, 77, 77, 46, 40, 33, 30, 65, 54, 88, 86, 38, 37, 72, 62, 59, 72, 16, 71, 57, 48, 59, 64, 67, 65, 46, 103, 81, 14, 41, 20, 46, 25, 43, 26, 90, 24, 85, 18, 46, 39, 27, 16, 28, 28, 58, 56, 63, 46, 60, 38, 22, 66, 52, 14, 19, 13, 25, 65, 39, 20, 67, 69, 18, 87, 91, 37, 50, 63, 56, 30, 27, 29, 76, 22, 23, 54, 46, 57, 90, 69, 99, 74, 32, 7
              |100, 21, 87, 71, 83, 28, 48, 68, 30, 62, 99, 25, 75, 47, 56, 62, 42, 57, 69, 7, 26, 36, 50, 65, 18, 43, 63, 85, 18, 28, 75, 42, 34, 77, 82, 79, 44, 80, 93, 46, 71, 83, 37, 57, 41, 46, 8, 58, 31, 44, 40, 48, 82, 5, 46, 81, 12, 57, 49, 64, 85, 51, 47, 70, 20, 81, 33, 61, 78, 23, 2, 86, 55, 86, 45, 40, 53, 76, 26, 16, 45, 82, 30, 55, 41, 60, 28, 37, 46, 72, 51, 84, 61, 33, 69, 61, 89, 47, 74, 97, 58, 47, 67, 13, 86, 72, 9, 74, 96, 59, 38, 32, 57, 29, 19, 4, 16, 25, 73, 88, 68, 32, 65, 37, 42, 51, 59, 26, 11, 54, 24, 55, 62, 9, 55, 15, 70, 39, 34, 26, 29, 67, 36, 68, 37, 50, 16, 84, 19, 56, 49, 40, 38, 60, 22, 70, 55, 49, 60, 85, 55, 69, 8, 31, 15, 46, 82, 10, 39, 75, 64, 51, 46, 25, 23, 51, 97, 7, 76, 51, 58, 73, 36, 87, 27, 46, 83, 67, 14, 64, 67, 15, 17, 36, 50, 18, 64, 12, 56, 56
              |110, 34, 93, 82, 88, 26, 48, 65, 18, 65, 107, 38, 82, 60, 52, 66, 55, 63, 79, 6, 38, 35, 63, 78, 31, 41, 66, 90, 14, 16, 79, 55, 36, 88, 85, 89, 44, 77, 103, 44, 81, 92, 40, 52, 53, 51, 17, 56, 22, 57, 53, 44, 87, 10, 58, 79, 24, 64, 58, 77, 93, 62, 60, 76, 32, 91, 21, 69, 83, 31, 15, 92, 67, 84, 58, 35, 62, 87, 14, 17, 58, 83, 34, 65, 44, 70, 28, 25, 59, 69, 48, 82, 64, 20, 65, 71, 97, 59, 80, 106, 54, 44, 79, 22, 84, 79, 4, 74, 105, 71, 28, 19, 68, 42, 28, 12, 16, 36, 82, 94, 75, 34, 77, 26, 55, 64, 67, 32, 12, 66, 36, 67, 67, 14, 67, 23, 80, 52, 47, 39, 39, 79, 24, 71, 30, 48, 21, 87, 25, 52, 62, 45, 50, 58, 18, 78, 62, 53, 56, 89, 66, 80, 5, 42, 28, 55, 81, 5, 29, 76, 69, 51, 52, 12, 27, 49, 106, 16, 75, 64, 71, 80, 26, 97, 40, 53, 87, 62, 17, 61, 64, 26, 18, 25, 63, 31, 77, 19, 51, 58
              |74, 13, 73, 40, 72, 48, 54, 79, 65, 60, 77, 9, 57, 25, 72, 59, 18, 48, 40, 42, 21, 50, 18, 36, 17, 58, 58, 75, 45, 61, 67, 18, 45, 47, 78, 50, 52, 89, 66, 59, 44, 61, 42, 73, 12, 40, 32, 70, 59, 26, 20, 64, 69, 38, 15, 89, 29, 46, 29, 30, 65, 25, 13, 56, 15, 57, 67, 41, 70, 28, 33, 74, 25, 91, 12, 63, 34, 45, 59, 45, 13, 83, 38, 31, 45, 36, 44, 71, 12, 85, 67, 91, 60, 67, 82, 37, 68, 21, 58, 70, 72, 62, 34, 27, 94, 56, 43, 76, 71, 34, 66, 66, 25, 6, 25, 37, 46, 24, 51, 72, 51, 42, 33, 66, 25, 23, 39, 32, 43, 21, 11, 20, 55, 40, 25, 30, 40, 5, 4, 9, 18, 41, 70, 62, 60, 62, 35, 77, 32, 72, 26, 40, 23, 71, 48, 51, 43, 47, 76, 77, 24, 42, 42, 18, 20, 29, 85, 44, 68, 77, 55, 57, 39, 59, 36, 64, 70, 35, 82, 24, 29, 55, 64, 60, 9, 35, 74, 82, 42, 77, 79, 22, 40, 67, 26, 20, 37, 37, 74, 57
              |77, 17, 79, 42, 78, 55, 62, 86, 68, 67, 81, 14, 62, 18, 79, 65, 12, 55, 43, 46, 20, 57, 12, 29, 21, 65, 64, 81, 51, 66, 74, 12, 52, 49, 84, 53, 59, 96, 68, 66, 47, 65, 49, 80, 17, 47, 37, 77, 64, 19, 14, 71, 74, 42, 19, 96, 30, 53, 35, 25, 70, 29, 10, 61, 20, 60, 70, 46, 76, 34, 36, 79, 27, 98, 14, 69, 40, 47, 64, 47, 7, 90, 45, 36, 52, 41, 51, 75, 13, 92, 73, 98, 67, 71, 89, 42, 72, 14, 64, 73, 79, 69, 33, 33, 101, 62, 47, 83, 74, 27, 72, 70, 27, 13, 31, 40, 48, 23, 55, 77, 57, 49, 34, 72, 19, 16, 44, 39, 46, 23, 16, 18, 62, 42, 28, 36, 43, 8, 5, 12, 25, 34, 73, 68, 67, 69, 41, 83, 39, 78, 19, 47, 18, 78, 53, 56, 49, 54, 83, 83, 27, 45, 46, 25, 24, 35, 92, 48, 73, 84, 61, 64, 46, 63, 43, 71, 73, 38, 89, 17, 22, 60, 69, 63, 16, 42, 81, 89, 44, 84, 86, 27, 46, 72, 19, 22, 30, 39, 81, 64
              |76, 79, 41, 77, 33, 50, 29, 18, 87, 21, 65, 77, 47, 104, 30, 23, 98, 34, 70, 77, 92, 41, 94, 112, 76, 35, 25, 32, 62, 74, 25, 98, 42, 77, 18, 73, 33, 15, 77, 32, 66, 58, 40, 31, 72, 40, 68, 22, 58, 105, 99, 34, 37, 73, 73, 13, 85, 38, 55, 100, 53, 65, 87, 39, 74, 64, 90, 52, 27, 57, 76, 38, 74, 12, 78, 46, 52, 79, 71, 90, 92, 9, 47, 60, 37, 60, 48, 90, 81, 21, 31, 13, 21, 78, 21, 59, 57, 101, 42, 75, 26, 34, 86, 67, 17, 42, 74, 4, 70, 113, 58, 83, 76, 75, 62, 80, 90, 93, 57, 45, 44, 44, 79, 62, 104, 102, 52, 52, 85, 77, 75, 87, 29, 85, 72, 62, 72, 80, 83, 81, 62, 119, 91, 23, 49, 28, 60, 24, 58, 30, 105, 40, 101, 21, 58, 50, 42, 32, 29, 28, 73, 69, 76, 62, 75, 54, 6, 79, 60, 5, 31, 25, 40, 76, 53, 27, 75, 83, 5, 103, 106, 47, 59, 73, 72, 45, 28, 26, 90, 21, 20, 69, 59, 65, 106, 84, 115, 88, 35, 23
              |94, 96, 58, 98, 50, 63, 45, 23, 96, 41, 82, 95, 66, 123, 36, 44, 117, 55, 91, 90, 109, 55, 114, 132, 93, 47, 45, 49, 74, 82, 44, 117, 57, 97, 35, 93, 48, 10, 97, 45, 87, 77, 58, 36, 91, 59, 83, 33, 67, 123, 117, 44, 55, 86, 93, 9, 101, 59, 76, 120, 72, 86, 107, 59, 91, 84, 98, 72, 46, 74, 91, 55, 94, 9, 98, 54, 73, 99, 80, 104, 111, 23, 64, 80, 54, 80, 62, 97, 100, 20, 40, 8, 41, 85, 23, 80, 75, 120, 61, 94, 34, 44, 106, 83, 4, 62, 87, 24, 88, 132, 65, 91, 96, 94, 79, 94, 103, 110, 77, 62, 65, 60, 99, 69, 122, 121, 73, 69, 98, 98, 93, 107, 49, 98, 93, 78, 93, 99, 102, 99, 80, 139, 99, 44, 58, 40, 75, 41, 74, 36, 124, 58, 119, 31, 70, 70, 62, 52, 33, 44, 93, 89, 89, 81, 92, 74, 16, 92, 66, 25, 51, 42, 60, 85, 69, 39, 94, 98, 17, 122, 126, 67, 66, 92, 91, 65, 45, 27, 103, 26, 24, 86, 73, 72, 125, 101, 134, 103, 39, 42
              |86, 55, 57, 73, 50, 20, 9, 21, 57, 25, 78, 55, 54, 84, 13, 28, 77, 33, 67, 48, 67, 12, 77, 96, 52, 5, 29, 51, 32, 44, 40, 77, 16, 75, 42, 74, 9, 32, 83, 2, 65, 66, 19, 14, 56, 28, 41, 10, 28, 83, 77, 8, 52, 44, 59, 34, 58, 36, 45, 86, 64, 55, 71, 46, 50, 69, 60, 49, 44, 33, 48, 55, 64, 38, 63, 17, 45, 76, 41, 61, 73, 38, 23, 52, 17, 55, 20, 60, 65, 26, 7, 36, 24, 48, 22, 55, 68, 81, 50, 83, 11, 5, 77, 40, 38, 49, 45, 29, 80, 94, 30, 53, 66, 55, 38, 51, 61, 68, 60, 60, 48, 18, 72, 34, 81, 83, 48, 28, 56, 66, 52, 74, 32, 56, 62, 36, 69, 62, 63, 59, 42, 101, 61, 33, 20, 2, 33, 46, 32, 12, 85, 23, 78, 12, 28, 53, 37, 22, 16, 49, 63, 66, 47, 43, 50, 43, 35, 49, 32, 31, 35, 9, 29, 46, 27, 4, 83, 55, 29, 84, 89, 53, 30, 77, 51, 34, 48, 21, 61, 17, 19, 44, 30, 37, 86, 59, 97, 60, 16, 19
              |81, 81, 46, 82, 37, 50, 30, 14, 87, 25, 70, 80, 52, 107, 28, 27, 101, 39, 75, 78, 94, 42, 98, 116, 78, 35, 29, 37, 62, 73, 30, 101, 43, 81, 23, 78, 34, 10, 82, 32, 71, 63, 42, 28, 75, 43, 70, 21, 57, 107, 102, 33, 42, 73, 76, 8, 87, 43, 59, 104, 58, 69, 91, 44, 76, 69, 89, 56, 32, 59, 78, 43, 78, 9, 81, 45, 56, 83, 70, 91, 95, 12, 49, 64, 39, 64, 49, 89, 84, 17, 29, 9, 24, 76, 18, 64, 62, 104, 47, 80, 24, 33, 90, 68, 13, 47, 75, 8, 75, 116, 57, 82, 80, 78, 64, 81, 91, 95, 62, 49, 49, 46, 83, 61, 106, 105, 56, 54, 86, 81, 77, 91, 33, 86, 76, 64, 77, 83, 86, 84, 65, 122, 90, 28, 49, 28, 61, 29, 59, 28, 108, 42, 103, 19, 58, 55, 46, 35, 26, 32, 77, 73, 77, 65, 77, 57, 5, 80, 58, 10, 35, 27, 44, 75, 55, 27, 80, 84, 1, 106, 110, 52, 57, 78, 75, 49, 33, 23, 90, 18, 17, 71, 60, 64, 109, 86, 118, 89, 32, 26
              |59, 30, 65, 24, 66, 59, 59, 83, 81, 59, 64, 26, 48, 32, 79, 57, 27, 46, 25, 58, 37, 58, 16, 33, 33, 66, 56, 68, 59, 76, 63, 27, 53, 31, 74, 35, 57, 92, 50, 66, 30, 49, 48, 80, 11, 41, 47, 75, 71, 35, 31, 72, 61, 53, 8, 91, 46, 43, 25, 20, 54, 15, 10, 49, 31, 43, 83, 33, 64, 38, 49, 66, 10, 92, 5, 73, 29, 29, 74, 62, 17, 81, 46, 22, 49, 26, 54, 87, 5, 90, 73, 92, 59, 82, 86, 27, 56, 28, 50, 55, 77, 69, 17, 41, 96, 48, 59, 76, 57, 37, 78, 82, 9, 21, 37, 53, 63, 40, 39, 63, 43, 50, 17, 79, 36, 25, 31, 41, 60, 5, 27, 7, 52, 57, 11, 43, 25, 12, 20, 26, 27, 41, 86, 59, 71, 68, 47, 72, 44, 78, 32, 44, 35, 76, 60, 41, 39, 49, 82, 71, 10, 27, 58, 25, 36, 26, 86, 60, 80, 76, 51, 61, 40, 74, 47, 69, 55, 52, 83, 27, 28, 46, 76, 45, 23, 35, 69, 87, 59, 81, 83, 37, 53, 80, 32, 37, 36, 54, 82, 58
              |123, 42, 107, 93, 103, 40, 63, 79, 12, 80, 121, 47, 96, 63, 65, 80, 60, 77, 91, 16, 41, 49, 70, 82, 39, 55, 81, 104, 28, 21, 94, 60, 50, 99, 99, 101, 59, 91, 116, 58, 93, 105, 55, 65, 64, 66, 29, 69, 34, 59, 56, 57, 102, 22, 68, 92, 28, 78, 71, 84, 107, 74, 68, 90, 42, 104, 13, 83, 97, 45, 24, 106, 78, 98, 67, 47, 75, 98, 22, 13, 65, 97, 48, 77, 59, 83, 43, 18, 68, 81, 61, 95, 78, 22, 78, 84, 110, 64, 94, 119, 67, 57, 89, 35, 97, 93, 18, 88, 118, 74, 38, 17, 79, 51, 41, 19, 11, 39, 95, 108, 89, 49, 88, 35, 57, 69, 81, 47, 13, 76, 46, 76, 81, 16, 78, 36, 92, 61, 54, 47, 52, 82, 16, 86, 43, 62, 35, 102, 39, 65, 65, 60, 53, 71, 32, 92, 76, 68, 68, 103, 77, 92, 17, 54, 37, 68, 95, 14, 38, 90, 83, 66, 66, 17, 41, 63, 119, 21, 89, 69, 76, 94, 36, 110, 50, 67, 102, 75, 15, 75, 77, 38, 33, 33, 66, 37, 80, 20, 63, 73
              |90, 70, 58, 83, 50, 34, 21, 6, 68, 28, 81, 70, 59, 98, 9, 31, 92, 40, 77, 62, 82, 27, 91, 110, 67, 19, 33, 50, 46, 54, 41, 92, 30, 84, 38, 82, 23, 18, 90, 17, 74, 71, 33, 9, 69, 39, 55, 5, 39, 98, 92, 15, 53, 58, 72, 20, 73, 44, 57, 100, 67, 67, 85, 51, 65, 75, 70, 58, 44, 48, 63, 55, 76, 26, 76, 26, 56, 86, 52, 75, 88, 30, 37, 63, 31, 65, 34, 70, 79, 11, 11, 23, 27, 58, 7, 65, 72, 96, 54, 89, 5, 16, 89, 55, 24, 54, 58, 22, 84, 108, 38, 63, 78, 69, 52, 66, 74, 83, 67, 61, 54, 33, 83, 42, 96, 97, 58, 43, 70, 78, 67, 87, 37, 70, 74, 50, 79, 76, 77, 74, 56, 115, 71, 35, 30, 13, 48, 44, 47, 8, 100, 35, 93, 4, 41, 60, 46, 32, 7, 47, 75, 76, 60, 57, 65, 54, 25, 63, 39, 25, 40, 18, 40, 57, 42, 11, 89, 69, 18, 99, 103, 59, 38, 84, 66, 46, 46, 8, 75, 2, 4, 59, 45, 45, 100, 74, 111, 74, 13, 25
              |34, 52, 43, 9, 46, 67, 57, 78, 97, 49, 38, 48, 26, 58, 78, 46, 54, 36, 1, 75, 62, 62, 42, 55, 53, 67, 45, 48, 71, 90, 47, 54, 57, 9, 58, 10, 57, 83, 25, 66, 4, 24, 50, 79, 29, 38, 63, 71, 80, 62, 57, 73, 40, 70, 25, 82, 67, 32, 22, 39, 30, 18, 36, 31, 50, 17, 100, 17, 47, 49, 67, 44, 16, 80, 29, 78, 21, 10, 87, 82, 43, 68, 52, 15, 49, 11, 61, 103, 31, 84, 73, 82, 50, 95, 81, 11, 31, 54, 30, 30, 75, 70, 20, 57, 86, 29, 75, 65, 31, 61, 86, 97, 17, 43, 51, 72, 84, 64, 15, 40, 25, 55, 13, 89, 62, 51, 18, 50, 79, 21, 47, 30, 40, 76, 16, 57, 4, 36, 44, 49, 40, 64, 103, 46, 78, 67, 60, 54, 56, 77, 58, 45, 62, 72, 71, 21, 29, 44, 80, 52, 17, 1, 75, 38, 55, 26, 74, 78, 89, 64, 38, 58, 37, 89, 56, 68, 30, 72, 73, 53, 52, 25, 85, 19, 43, 32, 50, 84, 80, 77, 78, 54, 65, 91, 58, 59, 59, 75, 82, 51
              |112, 54, 88, 91, 81, 20, 38, 46, 28, 56, 107, 56, 81, 82, 32, 58, 77, 60, 87, 31, 61, 26, 82, 99, 49, 27, 60, 82, 19, 14, 71, 77, 31, 96, 74, 95, 35, 58, 108, 30, 87, 93, 38, 32, 66, 51, 33, 38, 6, 79, 75, 26, 82, 30, 70, 60, 48, 62, 64, 94, 92, 71, 77, 74, 50, 94, 30, 72, 75, 39, 37, 86, 78, 67, 72, 15, 66, 96, 13, 42, 77, 69, 35, 71, 40, 76, 25, 29, 74, 48, 30, 63, 55, 17, 45, 76, 96, 81, 78, 109, 36, 27, 92, 37, 64, 77, 27, 60, 107, 93, 3, 23, 80, 58, 40, 37, 41, 60, 85, 90, 74, 32, 88, 2, 77, 85, 71, 37, 37, 79, 54, 83, 62, 39, 77, 34, 89, 68, 65, 58, 50, 101, 31, 64, 12, 33, 30, 78, 33, 32, 84, 44, 73, 40, 17, 79, 62, 49, 35, 80, 77, 87, 29, 52, 47, 61, 65, 30, 4, 62, 64, 40, 52, 18, 31, 34, 109, 41, 58, 85, 91, 80, 2, 102, 55, 55, 79, 41, 42, 42, 44, 43, 24, 5, 85, 53, 98, 45, 29, 50
              |104, 20, 94, 72, 91, 39, 57, 79, 34, 71, 104, 24, 81, 40, 67, 71, 36, 65, 71, 15, 18, 46, 46, 59, 18, 54, 71, 93, 28, 36, 83, 36, 44, 79, 91, 81, 54, 91, 96, 56, 74, 88, 46, 68, 42, 53, 18, 69, 41, 36, 33, 59, 89, 16, 47, 92, 4, 64, 53, 60, 91, 54, 45, 76, 21, 85, 36, 66, 86, 31, 10, 94, 57, 96, 45, 51, 58, 77, 35, 12, 41, 92, 39, 58, 50, 64, 39, 41, 45, 83, 62, 94, 70, 40, 80, 65, 94, 40, 80, 100, 68, 57, 67, 20, 97, 78, 18, 84, 100, 51, 48, 37, 57, 29, 26, 9, 13, 16, 78, 94, 74, 42, 66, 46, 34, 45, 64, 35, 11, 54, 24, 53, 70, 8, 57, 24, 72, 38, 31, 24, 34, 59, 39, 76, 48, 61, 26, 92, 28, 67, 42, 49, 30, 70, 33, 76, 62, 58, 71, 93, 56, 72, 16, 35, 16, 51, 92, 16, 49, 85, 72, 61, 53, 32, 33, 62, 100, 4, 86, 45, 52, 79, 46, 90, 28, 52, 91, 78, 9, 75, 77, 20, 28, 46, 43, 13, 57, 4, 67, 65
              |85, 65, 54, 77, 46, 31, 14, 11, 67, 23, 76, 64, 53, 93, 11, 26, 86, 34, 71, 58, 77, 22, 85, 104, 62, 15, 28, 46, 43, 53, 36, 86, 25, 78, 35, 76, 17, 22, 84, 12, 68, 66, 27, 12, 63, 33, 51, 2, 37, 92, 86, 14, 49, 54, 66, 23, 68, 38, 51, 94, 62, 61, 78, 45, 60, 70, 69, 52, 40, 43, 59, 51, 69, 28, 70, 25, 49, 80, 50, 72, 82, 29, 32, 57, 24, 59, 30, 69, 73, 16, 10, 26, 22, 57, 13, 59, 67, 90, 49, 83, 7, 13, 83, 51, 28, 48, 55, 20, 79, 103, 37, 62, 72, 64, 47, 62, 71, 78, 61, 57, 48, 28, 77, 41, 91, 92, 51, 38, 66, 72, 62, 81, 32, 66, 68, 46, 73, 70, 71, 68, 50, 109, 70, 30, 29, 8, 43, 40, 42, 10, 94, 29, 87, 2, 38, 54, 40, 26, 11, 43, 68, 69, 57, 51, 60, 48, 25, 60, 39, 23, 35, 12, 34, 55, 37, 7, 83, 65, 19, 93, 97, 53, 38, 79, 60, 39, 43, 14, 71, 8, 10, 54, 41, 45, 95, 69, 105, 71, 16, 19
              |46, 51, 63, 12, 67, 77, 73, 95, 102, 68, 55, 47, 47, 47, 94, 65, 44, 54, 19, 79, 57, 75, 30, 38, 54, 81, 64, 69, 78, 96, 67, 44, 69, 18, 78, 23, 72, 102, 36, 81, 24, 42, 63, 95, 31, 53, 67, 88, 90, 51, 48, 88, 61, 74, 26, 101, 67, 50, 36, 22, 49, 26, 28, 51, 52, 35, 104, 36, 67, 57, 70, 65, 18, 100, 26, 90, 37, 15, 94, 83, 34, 88, 63, 29, 64, 29, 72, 108, 26, 102, 88, 101, 68, 102, 99, 29, 49, 43, 51, 42, 91, 85, 4, 62, 105, 50, 79, 85, 46, 47, 97, 102, 16, 43, 57, 74, 84, 60, 36, 60, 45, 67, 9, 98, 52, 38, 36, 59, 81, 18, 48, 19, 60, 78, 19, 63, 17, 33, 40, 47, 46, 47, 107, 65, 89, 82, 67, 74, 63, 93, 46, 59, 53, 88, 79, 41, 47, 60, 96, 73, 19, 21, 79, 44, 57, 38, 93, 81, 99, 84, 57, 74, 52, 95, 66, 84, 42, 73, 92, 40, 36, 45, 95, 32, 44, 47, 71, 100, 80, 94, 96, 57, 73, 100, 46, 58, 43, 75, 97, 68
              |57, 29, 52, 28, 51, 44, 41, 65, 72, 42, 58, 25, 36, 45, 62, 40, 39, 29, 25, 50, 41, 42, 32, 50, 30, 49, 39, 54, 47, 65, 47, 39, 36, 33, 58, 35, 40, 74, 50, 49, 27, 41, 31, 63, 10, 23, 38, 57, 57, 46, 41, 55, 48, 45, 11, 73, 43, 26, 8, 38, 45, 8, 25, 35, 26, 38, 75, 20, 49, 25, 42, 52, 15, 74, 16, 57, 13, 33, 63, 58, 30, 64, 30, 11, 32, 17, 39, 79, 18, 72, 56, 74, 42, 71, 68, 18, 48, 41, 37, 53, 60, 52, 29, 32, 78, 35, 50, 59, 53, 52, 64, 72, 17, 20, 26, 47, 59, 43, 31, 51, 30, 34, 24, 66, 46, 40, 18, 26, 55, 17, 24, 25, 36, 52, 14, 32, 26, 19, 25, 27, 15, 57, 78, 42, 56, 51, 35, 56, 31, 61, 45, 27, 44, 58, 47, 30, 22, 31, 65, 56, 14, 25, 50, 13, 31, 9, 68, 53, 66, 59, 35, 43, 22, 64, 33, 52, 53, 48, 65, 42, 44, 34, 62, 43, 19, 17, 54, 69, 56, 64, 65, 29, 41, 67, 46, 36, 53, 51, 65, 40
              |86, 1, 80, 53, 78, 40, 52, 76, 51, 62, 87, 5, 65, 29, 67, 61, 23, 52, 52, 28, 12, 45, 29, 45, 4, 53, 60, 80, 34, 49, 72, 23, 40, 60, 81, 62, 49, 87, 78, 54, 56, 71, 39, 68, 24, 42, 21, 66, 48, 27, 22, 59, 75, 25, 28, 88, 15, 51, 37, 43, 74, 35, 26, 62, 6, 68, 53, 49, 74, 23, 19, 80, 38, 91, 26, 55, 42, 58, 47, 31, 24, 84, 34, 41, 43, 47, 38, 58, 26, 82, 62, 90, 61, 54, 78, 48, 77, 27, 65, 82, 67, 57, 47, 17, 93, 63, 30, 77, 82, 40, 56, 53, 38, 10, 18, 23, 32, 14, 61, 80, 59, 38, 47, 56, 25, 31, 47, 28, 29, 35, 6, 34, 59, 26, 38, 22, 53, 19, 12, 5, 19, 48, 57, 65, 52, 58, 26, 81, 25, 66, 30, 40, 22, 68, 38, 60, 48, 48, 71, 81, 37, 54, 29, 20, 7, 35, 85, 31, 57, 78, 59, 55, 42, 46, 30, 60, 82, 21, 81, 31, 38, 63, 53, 72, 10, 39, 79, 77, 29, 73, 75, 12, 31, 56, 31, 7, 44, 23, 68, 57
              |75, 71, 41, 72, 33, 42, 20, 16, 80, 15, 65, 69, 44, 97, 25, 18, 90, 29, 65, 69, 84, 33, 87, 105, 68, 28, 20, 33, 54, 66, 24, 90, 34, 72, 21, 69, 24, 19, 75, 25, 62, 56, 32, 25, 64, 33, 60, 16, 51, 97, 91, 28, 37, 64, 66, 18, 77, 33, 49, 93, 52, 59, 80, 36, 66, 61, 82, 47, 27, 49, 68, 38, 67, 19, 71, 39, 46, 74, 64, 82, 84, 15, 39, 54, 29, 54, 40, 83, 74, 21, 24, 19, 14, 71, 20, 54, 56, 93, 39, 73, 21, 27, 80, 59, 23, 39, 66, 6, 69, 106, 51, 76, 70, 68, 54, 72, 82, 85, 53, 45, 40, 36, 73, 56, 96, 94, 47, 44, 77, 71, 67, 80, 24, 77, 66, 54, 68, 72, 75, 73, 54, 112, 84, 20, 42, 21, 52, 26, 50, 24, 98, 32, 93, 15, 50, 46, 36, 25, 24, 29, 67, 64, 68, 54, 67, 47, 14, 71, 53, 9, 26, 17, 33, 68, 45, 20, 73, 75, 10, 96, 99, 44, 52, 70, 64, 38, 29, 24, 81, 17, 17, 61, 51, 59, 98, 76, 108, 80, 30, 16
              |50, 36, 55, 16, 56, 58, 54, 78, 84, 52, 54, 32, 38, 42, 75, 50, 37, 38, 16, 62, 45, 56, 26, 42, 38, 63, 48, 59, 60, 78, 54, 37, 50, 23, 65, 26, 53, 85, 42, 62, 20, 39, 44, 76, 13, 35, 50, 70, 71, 45, 40, 69, 51, 56, 9, 85, 52, 35, 18, 28, 44, 8, 20, 39, 35, 33, 87, 23, 55, 38, 53, 56, 1, 85, 13, 71, 21, 21, 76, 67, 27, 74, 44, 13, 45, 16, 53, 91, 14, 84, 70, 85, 52, 84, 81, 17, 46, 38, 41, 46, 73, 66, 15, 44, 89, 39, 62, 69, 48, 47, 78, 85, 3, 27, 39, 58, 69, 48, 29, 53, 34, 48, 11, 79, 45, 36, 22, 40, 65, 5, 32, 16, 45, 62, 1, 45, 16, 20, 28, 33, 28, 50, 90, 51, 70, 64, 48, 63, 45, 74, 42, 40, 45, 71, 61, 32, 31, 43, 78, 62, 0, 18, 62, 25, 40, 20, 78, 64, 80, 69, 43, 56, 35, 77, 47, 65, 46, 57, 76, 37, 37, 36, 76, 36, 28, 29, 60, 83, 65, 76, 78, 40, 54, 81, 42, 43, 46, 60, 78, 51
              |25, 68, 19, 32, 24, 69, 52, 66, 105, 38, 19, 64, 7, 80, 71, 35, 75, 29, 25, 85, 80, 62, 65, 79, 68, 64, 33, 26, 76, 95, 28, 75, 57, 28, 38, 23, 54, 68, 24, 62, 20, 5, 50, 72, 47, 38, 72, 63, 83, 83, 78, 69, 18, 79, 45, 66, 82, 26, 32, 63, 6, 35, 58, 16, 65, 11, 108, 19, 27, 57, 79, 21, 38, 64, 50, 76, 27, 30, 92, 95, 65, 50, 55, 28, 48, 23, 64, 110, 52, 72, 67, 66, 39, 100, 70, 22, 9, 76, 12, 23, 67, 66, 44, 67, 70, 12, 84, 50, 19, 85, 87, 103, 40, 59, 61, 84, 96, 82, 9, 16, 14, 57, 37, 90, 83, 74, 22, 55, 91, 44, 63, 53, 29, 89, 37, 65, 27, 56, 63, 66, 51, 88, 111, 31, 77, 61, 67, 33, 63, 70, 80, 45, 82, 62, 75, 9, 26, 39, 72, 31, 38, 23, 85, 50, 69, 34, 57, 88, 89, 48, 26, 52, 37, 95, 62, 62, 23, 85, 58, 76, 75, 8, 86, 20, 58, 35, 29, 74, 93, 67, 67, 66, 71, 93, 81, 75, 83, 89, 76, 42
              |74, 25, 59, 49, 55, 23, 26, 51, 54, 36, 71, 24, 46, 52, 44, 35, 46, 28, 45, 34, 39, 22, 46, 64, 23, 30, 35, 57, 26, 45, 47, 46, 17, 54, 55, 54, 23, 61, 68, 31, 46, 55, 13, 45, 25, 17, 21, 41, 36, 52, 46, 36, 53, 28, 29, 62, 34, 28, 22, 56, 57, 29, 39, 41, 21, 54, 57, 33, 50, 5, 28, 58, 36, 64, 32, 36, 25, 53, 42, 44, 42, 58, 9, 30, 17, 35, 18, 60, 34, 57, 38, 64, 35, 51, 53, 35, 60, 50, 45, 70, 43, 34, 50, 16, 67, 43, 32, 50, 69, 62, 43, 53, 38, 23, 10, 33, 45, 40, 46, 59, 39, 14, 46, 44, 51, 51, 31, 5, 40, 37, 22, 43, 34, 38, 35, 14, 47, 30, 31, 28, 10, 69, 59, 40, 35, 34, 16, 56, 11, 43, 54, 14, 48, 42, 26, 42, 26, 22, 47, 57, 35, 45, 33, 12, 22, 19, 59, 36, 45, 51, 35, 29, 17, 44, 12, 35, 70, 35, 55, 53, 57, 44, 41, 61, 20, 17, 55, 53, 43, 48, 50, 17, 20, 46, 54, 31, 65, 40, 46, 31
              |52, 60, 24, 49, 19, 46, 26, 39, 85, 10, 44, 57, 20, 81, 43, 7, 75, 8, 42, 68, 73, 38, 69, 86, 58, 38, 5, 21, 56, 73, 11, 75, 34, 48, 21, 45, 28, 43, 51, 35, 38, 33, 29, 44, 47, 19, 56, 35, 59, 82, 77, 42, 19, 62, 47, 41, 70, 11, 29, 73, 30, 38, 62, 12, 55, 37, 87, 23, 14, 41, 64, 23, 46, 40, 52, 50, 25, 50, 70, 80, 67, 28, 35, 32, 25, 31, 42, 89, 55, 45, 40, 42, 11, 78, 43, 31, 34, 77, 16, 50, 40, 39, 57, 52, 46, 15, 66, 25, 46, 89, 62, 82, 48, 54, 46, 68, 80, 75, 29, 26, 16, 35, 50, 66, 82, 77, 24, 38, 75, 50, 55, 60, 2, 74, 45, 49, 44, 55, 60, 60, 41, 94, 90, 6, 52, 34, 49, 20, 45, 42, 82, 24, 79, 35, 53, 22, 14, 16, 44, 21, 45, 40, 67, 41, 58, 28, 34, 71, 64, 24, 2, 25, 19, 74, 42, 34, 50, 71, 33, 79, 81, 20, 62, 46, 51, 22, 19, 46, 78, 39, 40, 53, 51, 69, 82, 66, 89, 76, 48, 15
              |86, 74, 53, 82, 44, 40, 23, 4, 75, 25, 76, 73, 55, 101, 16, 28, 95, 38, 75, 68, 86, 32, 93, 112, 71, 25, 30, 44, 52, 61, 35, 95, 34, 82, 32, 80, 26, 13, 86, 22, 72, 67, 35, 17, 71, 39, 61, 10, 46, 101, 95, 22, 48, 64, 73, 14, 78, 42, 57, 101, 63, 67, 86, 47, 69, 72, 77, 57, 38, 52, 68, 50, 76, 19, 77, 33, 55, 84, 59, 81, 90, 23, 41, 62, 33, 64, 40, 77, 80, 10, 18, 16, 24, 65, 8, 63, 67, 98, 50, 85, 12, 22, 89, 60, 18, 50, 64, 15, 80, 111, 45, 71, 78, 72, 56, 71, 81, 87, 64, 56, 51, 37, 82, 49, 100, 100, 56, 47, 76, 79, 70, 88, 34, 76, 74, 55, 77, 78, 80, 77, 59, 118, 79, 31, 37, 18, 52, 37, 51, 16, 103, 37, 96, 8, 48, 57, 45, 32, 14, 40, 75, 74, 66, 59, 69, 55, 17, 69, 47, 18, 37, 20, 40, 64, 46, 16, 85, 75, 11, 101, 105, 55, 46, 81, 69, 46, 40, 13, 81, 6, 6, 63, 50, 52, 103, 78, 113, 80, 21, 23
              |82, 46, 57, 66, 50, 15, 8, 29, 53, 26, 76, 46, 50, 74, 21, 27, 68, 29, 60, 41, 58, 5, 68, 87, 43, 8, 29, 52, 26, 41, 41, 68, 6, 69, 45, 68, 4, 41, 79, 8, 59, 62, 10, 22, 47, 22, 33, 19, 26, 74, 68, 14, 51, 36, 50, 42, 50, 32, 38, 78, 61, 47, 62, 43, 41, 64, 56, 44, 44, 24, 41, 55, 56, 46, 54, 19, 38, 69, 38, 54, 64, 43, 13, 45, 10, 49, 12, 57, 56, 35, 16, 44, 25, 46, 31, 49, 65, 72, 47, 79, 21, 11, 70, 32, 47, 46, 38, 34, 76, 85, 30, 50, 58, 46, 28, 44, 54, 59, 55, 59, 44, 9, 64, 33, 72, 74, 42, 19, 49, 57, 43, 65, 30, 49, 54, 27, 62, 53, 53, 49, 33, 92, 58, 33, 20, 11, 24, 48, 23, 21, 76, 15, 69, 21, 23, 49, 32, 18, 25, 50, 55, 60, 40, 34, 41, 35, 42, 43, 32, 36, 33, 11, 23, 42, 18, 13, 79, 47, 36, 75, 80, 49, 29, 72, 42, 27, 49, 31, 53, 26, 28, 35, 23, 36, 77, 50, 88, 52, 24, 19
              |18, 67, 33, 21, 38, 76, 62, 79, 110, 50, 22, 63, 20, 74, 82, 47, 70, 39, 17, 88, 78, 70, 58, 70, 68, 74, 45, 40, 82, 101, 42, 70, 65, 15, 53, 10, 63, 82, 12, 72, 13, 11, 58, 83, 45, 45, 76, 75, 90, 78, 73, 79, 33, 83, 41, 80, 82, 35, 34, 54, 18, 33, 52, 28, 65, 3, 113, 23, 41, 61, 81, 35, 33, 78, 46, 85, 31, 18, 98, 97, 60, 64, 62, 28, 56, 22, 71, 116, 47, 85, 78, 80, 51, 107, 83, 21, 17, 70, 25, 14, 79, 76, 34, 70, 84, 25, 88, 64, 15, 77, 95, 109, 33, 58, 64, 86, 98, 80, 11, 29, 24, 64, 28, 98, 78, 67, 25, 61, 93, 37, 62, 46, 41, 91, 32, 69, 18, 52, 60, 65, 53, 79, 115, 44, 86, 72, 72, 47, 67, 81, 74, 52, 78, 74, 81, 18, 34, 49, 84, 45, 33, 15, 88, 51, 70, 37, 71, 91, 97, 62, 38, 62, 44, 100, 67, 73, 14, 87, 72, 69, 67, 20, 94, 6, 58, 41, 43, 86, 95, 79, 80, 68, 76, 100, 74, 75, 75, 90, 87, 53
              |88, 12, 77, 58, 74, 29, 43, 66, 42, 54, 87, 14, 63, 41, 56, 54, 35, 47, 56, 20, 22, 33, 40, 57, 8, 42, 54, 75, 23, 38, 66, 35, 30, 64, 74, 66, 39, 77, 81, 44, 58, 71, 30, 57, 29, 36, 9, 55, 36, 39, 34, 47, 71, 15, 33, 78, 15, 47, 36, 53, 73, 38, 36, 59, 8, 69, 45, 49, 69, 14, 11, 76, 43, 82, 33, 43, 41, 63, 36, 27, 35, 76, 24, 42, 34, 48, 26, 49, 34, 71, 50, 80, 54, 44, 67, 49, 77, 39, 63, 84, 56, 45, 55, 5, 83, 61, 20, 68, 83, 52, 44, 43, 44, 17, 9, 16, 28, 22, 61, 77, 56, 27, 52, 44, 37, 43, 47, 19, 23, 41, 12, 43, 53, 21, 42, 10, 57, 27, 23, 16, 17, 60, 48, 59, 40, 47, 14, 75, 14, 55, 42, 32, 33, 57, 26, 59, 44, 41, 59, 76, 42, 57, 20, 19, 5, 34, 77, 22, 45, 69, 54, 46, 36, 36, 19, 49, 84, 17, 72, 43, 49, 61, 41, 74, 15, 35, 74, 66, 25, 62, 65, 2, 19, 44, 43, 14, 56, 21, 57, 49
              |78, 15, 79, 43, 78, 53, 60, 85, 66, 66, 81, 12, 62, 19, 78, 64, 13, 54, 44, 44, 18, 55, 14, 31, 19, 64, 64, 80, 49, 64, 73, 13, 50, 50, 83, 53, 57, 95, 69, 64, 48, 66, 47, 78, 17, 46, 35, 75, 62, 20, 14, 70, 74, 40, 19, 95, 29, 52, 35, 27, 70, 29, 12, 61, 18, 61, 68, 46, 75, 33, 34, 79, 28, 97, 15, 67, 40, 48, 62, 45, 9, 89, 43, 36, 50, 41, 49, 73, 14, 91, 72, 97, 66, 69, 87, 42, 72, 16, 64, 74, 77, 67, 35, 31, 100, 62, 45, 82, 75, 28, 70, 68, 28, 11, 30, 38, 47, 21, 55, 77, 56, 47, 36, 70, 19, 17, 44, 37, 44, 24, 15, 20, 61, 40, 28, 34, 43, 8, 3, 10, 24, 35, 72, 68, 65, 68, 39, 82, 37, 77, 20, 46, 18, 76, 51, 56, 48, 53, 81, 82, 28, 45, 44, 23, 22, 34, 91, 46, 71, 83, 61, 63, 45, 61, 41, 69, 74, 36, 88, 19, 24, 60, 67, 63, 14, 41, 80, 87, 42, 82, 84, 25, 44, 70, 21, 20, 31, 37, 79, 62
              |32, 64, 17, 35, 20, 62, 45, 59, 99, 30, 25, 61, 0, 79, 64, 27, 74, 22, 28, 80, 77, 55, 64, 80, 64, 57, 25, 22, 70, 88, 22, 74, 50, 32, 33, 27, 47, 62, 31, 55, 23, 12, 44, 65, 45, 31, 67, 56, 76, 81, 76, 61, 14, 74, 43, 60, 77, 19, 28, 64, 11, 33, 57, 8, 61, 17, 102, 16, 21, 51, 74, 18, 38, 57, 49, 69, 23, 34, 86, 90, 64, 44, 49, 26, 41, 22, 57, 104, 51, 65, 60, 59, 32, 94, 63, 21, 15, 75, 5, 30, 60, 59, 46, 62, 64, 5, 78, 43, 26, 84, 80, 97, 40, 56, 55, 79, 91, 79, 11, 15, 7, 50, 39, 83, 81, 73, 18, 50, 86, 43, 59, 53, 22, 84, 37, 60, 30, 54, 61, 63, 47, 88, 104, 24, 70, 54, 61, 28, 57, 63, 79, 38, 80, 55, 69, 6, 20, 32, 65, 26, 38, 25, 79, 46, 65, 30, 51, 82, 82, 42, 19, 44, 30, 89, 56, 54, 30, 80, 51, 75, 75, 2, 79, 26, 55, 29, 24, 67, 88, 60, 60, 61, 65, 86, 80, 72, 84, 85, 68, 35
              |37, 73, 6, 47, 8, 65, 45, 54, 103, 27, 26, 70, 12, 90, 61, 25, 85, 25, 40, 86, 86, 57, 76, 92, 73, 57, 23, 10, 74, 92, 14, 85, 53, 43, 23, 39, 47, 54, 39, 54, 35, 20, 47, 62, 56, 36, 73, 52, 78, 92, 87, 60, 2, 80, 55, 52, 86, 24, 38, 77, 14, 45, 69, 12, 69, 27, 106, 27, 12, 58, 81, 6, 50, 48, 60, 69, 33, 46, 89, 97, 75, 34, 53, 37, 44, 34, 60, 108, 62, 59, 58, 51, 29, 97, 58, 33, 18, 86, 9, 36, 57, 58, 58, 69, 55, 11, 84, 36, 31, 96, 81, 101, 52, 66, 62, 85, 97, 88, 23, 7, 16, 54, 51, 85, 92, 85, 29, 55, 92, 55, 68, 65, 21, 90, 49, 66, 42, 65, 71, 73, 55, 100, 108, 20, 71, 52, 67, 17, 63, 60, 91, 42, 91, 51, 72, 18, 26, 34, 61, 15, 50, 38, 85, 54, 73, 39, 42, 88, 83, 34, 19, 43, 35, 92, 60, 53, 36, 87, 44, 87, 87, 14, 81, 35, 64, 36, 13, 62, 95, 55, 55, 69, 69, 88, 91, 80, 95, 92, 66, 33
              |75, 63, 44, 69, 36, 34, 12, 16, 72, 13, 66, 62, 44, 90, 21, 16, 83, 25, 62, 61, 76, 25, 81, 99, 60, 20, 18, 37, 46, 59, 27, 83, 25, 70, 27, 67, 16, 24, 75, 17, 60, 56, 25, 21, 58, 27, 52, 12, 44, 90, 84, 21, 39, 56, 60, 24, 69, 29, 44, 88, 52, 54, 74, 36, 58, 60, 75, 44, 30, 41, 60, 42, 63, 27, 65, 32, 42, 71, 56, 74, 78, 23, 31, 49, 21, 51, 32, 75, 68, 23, 18, 26, 12, 63, 20, 50, 57, 87, 39, 74, 17, 20, 76, 51, 29, 39, 58, 14, 69, 99, 45, 68, 65, 61, 46, 64, 74, 77, 52, 47, 39, 28, 69, 49, 88, 88, 43, 36, 69, 66, 59, 75, 22, 68, 61, 46, 65, 66, 68, 66, 47, 105, 77, 21, 35, 14, 44, 31, 42, 20, 91, 25, 85, 11, 42, 45, 32, 19, 21, 34, 62, 61, 60, 48, 59, 42, 22, 63, 47, 16, 25, 9, 27, 61, 37, 14, 74, 67, 17, 89, 93, 43, 45, 69, 57, 33, 33, 23, 73, 16, 17, 53, 43, 52, 92, 68, 101, 72, 26, 10|];
