Warehouses = 20;
Stores = 50;

Capacity = [50, 30, 50, 90, 30, 40, 30, 50, 30, 70, 70, 30, 30, 60, 90, 80, 100, 40, 100, 80];
FixedCost = [400, 220, 510, 1110, 320, 390, 210, 380, 290, 710, 630, 330, 210, 650, 730, 660, 920, 410, 980, 810];
Goods = [16, 13, 19, 14, 20, 6, 20, 7, 19, 14, 17, 16, 7, 19, 7, 18, 18, 18, 15, 7, 8, 19, 19, 14, 8, 13, 19, 5, 9, 16, 19, 10, 16, 5, 18, 18, 20, 19, 10, 13, 6, 5, 9, 18, 13, 15, 7, 11, 7, 11];
SupplyCost = [|66, 46, 25, 48, 36, 86, 82, 48, 84, 70, 93, 22, 64, 58, 12, 77, 70, 58, 63, 33
              |14, 49, 74, 47, 102, 39, 3, 38, 5, 90, 58, 58, 20, 91, 78, 8, 70, 83, 34, 81
              |85, 83, 71, 84, 23, 78, 94, 79, 96, 28, 74, 58, 87, 14, 59, 95, 42, 20, 62, 15
              |63, 67, 64, 68, 40, 56, 71, 61, 72, 28, 54, 45, 66, 23, 55, 72, 26, 17, 38, 18
              |24, 31, 45, 31, 68, 48, 38, 21, 40, 68, 61, 25, 25, 64, 45, 35, 54, 58, 25, 49
              |13, 44, 71, 42, 104, 48, 12, 34, 13, 97, 68, 57, 15, 97, 76, 2, 77, 89, 41, 85
              |83, 94, 92, 94, 56, 58, 85, 86, 86, 7, 47, 73, 87, 21, 82, 90, 16, 14, 51, 40
              |21, 55, 79, 54, 102, 31, 6, 44, 6, 86, 51, 62, 27, 88, 82, 16, 65, 80, 30, 81
              |80, 77, 67, 79, 23, 75, 89, 74, 91, 30, 72, 52, 82, 16, 55, 90, 40, 20, 58, 10
              |30, 40, 50, 40, 64, 43, 40, 30, 42, 59, 54, 30, 32, 56, 48, 40, 45, 49, 19, 43
              |62, 36, 11, 38, 50, 90, 79, 41, 81, 82, 99, 18, 59, 71, 3, 73, 80, 70, 66, 46
              |75, 90, 93, 90, 66, 45, 75, 81, 76, 21, 34, 72, 79, 32, 85, 81, 6, 23, 42, 47
              |23, 54, 82, 52, 115, 49, 13, 45, 12, 103, 69, 68, 26, 105, 88, 13, 83, 96, 47, 94
              |34, 57, 72, 57, 77, 21, 34, 47, 35, 57, 34, 51, 39, 59, 70, 39, 36, 50, 2, 55
              |14, 30, 59, 28, 100, 60, 26, 22, 28, 100, 78, 48, 9, 98, 66, 16, 82, 90, 47, 82
              |43, 27, 25, 28, 54, 68, 59, 25, 61, 71, 79, 4, 41, 63, 23, 53, 64, 60, 45, 41
              |90, 96, 91, 97, 47, 70, 95, 90, 96, 6, 60, 74, 93, 11, 79, 98, 28, 12, 60, 35
              |20, 15, 41, 14, 81, 61, 37, 4, 39, 88, 77, 29, 15, 83, 47, 29, 73, 77, 42, 65
              |47, 24, 18, 26, 56, 75, 63, 26, 65, 77, 86, 4, 44, 68, 18, 57, 70, 65, 52, 45
              |78, 55, 29, 57, 35, 98, 94, 59, 96, 76, 104, 33, 76, 63, 16, 89, 79, 65, 75, 39
              |41, 14, 19, 16, 66, 75, 58, 18, 60, 85, 88, 12, 37, 77, 25, 51, 76, 73, 53, 55
              |71, 42, 13, 44, 53, 100, 88, 49, 90, 89, 109, 28, 67, 78, 9, 81, 88, 78, 76, 53
              |23, 15, 37, 15, 76, 61, 40, 5, 42, 83, 76, 24, 19, 78, 42, 33, 70, 73, 40, 60
              |22, 19, 39, 19, 74, 57, 39, 9, 41, 79, 72, 23, 20, 75, 42, 33, 66, 69, 37, 57
              |74, 68, 56, 70, 20, 75, 85, 65, 87, 38, 75, 43, 75, 25, 44, 84, 45, 28, 55, 2
              |59, 26, 6, 28, 68, 94, 76, 35, 78, 96, 106, 24, 54, 86, 20, 68, 91, 85, 71, 62
              |43, 19, 18, 21, 62, 75, 60, 22, 62, 81, 87, 8, 40, 73, 22, 53, 73, 70, 52, 51
              |64, 67, 63, 68, 38, 57, 72, 61, 74, 29, 56, 45, 67, 22, 54, 73, 28, 17, 40, 16
              |60, 74, 79, 75, 60, 38, 63, 66, 64, 28, 34, 58, 65, 33, 71, 67, 9, 23, 29, 39
              |84, 77, 63, 79, 13, 83, 95, 75, 96, 39, 81, 52, 85, 24, 50, 94, 50, 30, 64, 11
              |12, 26, 54, 24, 94, 58, 27, 17, 29, 95, 76, 43, 5, 92, 61, 17, 78, 85, 43, 77
              |22, 56, 80, 55, 101, 28, 9, 45, 9, 83, 48, 62, 28, 86, 82, 19, 62, 77, 28, 79
              |52, 57, 58, 58, 47, 49, 60, 50, 62, 38, 52, 38, 55, 34, 50, 61, 29, 27, 29, 24
              |22, 31, 47, 31, 70, 47, 35, 21, 37, 69, 60, 27, 23, 66, 47, 32, 54, 59, 25, 51
              |80, 59, 35, 62, 28, 97, 95, 62, 97, 71, 102, 36, 78, 57, 22, 91, 75, 60, 74, 34
              |13, 40, 68, 38, 104, 53, 17, 31, 18, 99, 72, 56, 13, 99, 74, 6, 80, 91, 44, 86
              |62, 69, 68, 70, 46, 50, 68, 62, 69, 26, 48, 49, 65, 24, 60, 70, 20, 16, 35, 24
              |34, 48, 59, 48, 65, 35, 40, 38, 42, 53, 45, 37, 37, 53, 56, 42, 37, 45, 12, 43
              |87, 85, 74, 87, 25, 79, 95, 81, 97, 26, 74, 61, 89, 11, 62, 97, 41, 19, 63, 18
              |16, 49, 76, 47, 107, 44, 7, 39, 8, 96, 64, 61, 20, 97, 81, 6, 76, 89, 40, 87
              |31, 6, 35, 4, 85, 75, 48, 11, 50, 98, 91, 31, 25, 92, 45, 39, 86, 87, 55, 72
              |50, 46, 44, 48, 43, 59, 61, 41, 63, 50, 64, 24, 50, 42, 36, 60, 44, 38, 36, 24
              |10, 42, 69, 40, 102, 48, 12, 32, 13, 95, 67, 55, 13, 95, 74, 1, 76, 87, 39, 83
              |48, 50, 50, 51, 46, 52, 58, 44, 60, 45, 57, 30, 50, 40, 43, 58, 37, 34, 30, 25
              |64, 74, 74, 74, 50, 48, 69, 66, 70, 23, 44, 54, 68, 24, 65, 72, 14, 15, 35, 29
              |60, 31, 5, 34, 57, 90, 77, 38, 79, 87, 101, 18, 56, 76, 9, 70, 83, 75, 67, 52
              |78, 83, 78, 84, 40, 63, 84, 77, 85, 13, 57, 61, 81, 9, 68, 87, 24, 2, 50, 24
              |61, 36, 14, 38, 48, 87, 77, 40, 79, 78, 96, 16, 58, 67, 4, 71, 76, 67, 63, 43
              |29, 52, 68, 52, 77, 25, 31, 41, 32, 60, 39, 47, 34, 62, 66, 35, 40, 53, 4, 55
              |29, 37, 49, 38, 64, 44, 40, 28, 42, 61, 56, 28, 31, 58, 47, 39, 47, 51, 21, 44|];
