Warehouses = 30;
Stores = 73;

Capacity = [70, 40, 70, 40, 40, 90, 40, 100, 60, 40, 80, 50, 70, 50, 70, 40, 50, 80, 40, 90, 80, 30, 50, 50, 100, 60, 80, 40, 100, 100];
FixedCost = [650, 410, 880, 400, 290, 1060, 310, 1190, 520, 400, 940, 350, 560, 530, 670, 410, 470, 710, 500, 1160, 970, 330, 520, 620, 850, 710, 670, 500, 1220, 960];
Goods = [8, 18, 12, 13, 11, 9, 20, 14, 17, 5, 19, 8, 13, 16, 8, 16, 19, 19, 9, 20, 8, 5, 15, 11, 13, 14, 15, 13, 12, 16, 13, 19, 9, 16, 11, 16, 14, 12, 13, 14, 5, 19, 15, 11, 10, 6, 20, 15, 15, 5, 10, 19, 14, 12, 17, 5, 10, 18, 5, 5, 8, 13, 10, 9, 19, 14, 16, 11, 18, 13, 14, 15, 7];
SupplyCost = [|45, 57, 60, 11, 62, 82, 21, 33, 24, 42, 67, 102, 46, 36, 87, 51, 35, 57, 43, 74, 47, 21, 38, 76, 57, 46, 10, 72, 88, 32
              |46, 58, 29, 43, 38, 31, 44, 28, 30, 33, 30, 74, 43, 74, 67, 50, 31, 23, 74, 22, 37, 65, 47, 26, 6, 79, 56, 48, 37, 67
              |13, 5, 31, 58, 23, 78, 69, 65, 42, 76, 84, 48, 86, 47, 32, 6, 70, 76, 38, 70, 17, 52, 19, 59, 59, 44, 52, 25, 83, 40
              |24, 13, 37, 70, 27, 84, 80, 76, 53, 87, 93, 41, 97, 55, 24, 18, 81, 86, 45, 77, 27, 62, 30, 64, 67, 50, 62, 25, 89, 49
              |76, 89, 66, 45, 75, 49, 36, 25, 48, 13, 21, 112, 13, 89, 105, 81, 20, 17, 93, 45, 70, 75, 73, 59, 37, 98, 64, 85, 53, 83
              |80, 88, 52, 86, 61, 15, 85, 68, 73, 67, 43, 76, 75, 115, 79, 81, 69, 48, 113, 21, 70, 108, 83, 24, 38, 118, 99, 64, 11, 107
              |37, 40, 11, 66, 13, 48, 73, 61, 48, 69, 64, 37, 79, 77, 32, 36, 65, 60, 71, 42, 28, 75, 43, 26, 38, 76, 70, 14, 52, 69
              |70, 80, 45, 71, 54, 3, 70, 53, 59, 52, 30, 77, 60, 103, 77, 72, 54, 34, 101, 7, 61, 95, 73, 19, 24, 107, 85, 59, 8, 95
              |98, 107, 71, 96, 80, 25, 93, 76, 86, 72, 44, 96, 78, 130, 99, 100, 76, 53, 129, 34, 88, 121, 100, 43, 50, 134, 112, 84, 20, 122
              |30, 22, 31, 74, 21, 77, 83, 76, 56, 87, 89, 30, 97, 65, 14, 24, 82, 83, 56, 70, 28, 70, 37, 56, 63, 61, 69, 15, 81, 59
              |48, 61, 53, 8, 58, 65, 9, 14, 18, 24, 49, 98, 30, 52, 86, 54, 17, 38, 57, 58, 46, 38, 43, 63, 42, 61, 27, 69, 71, 47
              |50, 54, 22, 74, 27, 38, 78, 64, 56, 70, 59, 42, 80, 89, 42, 49, 68, 57, 84, 34, 41, 87, 56, 17, 36, 90, 80, 27, 41, 81
              |25, 15, 34, 70, 25, 81, 81, 75, 53, 86, 91, 38, 96, 58, 21, 18, 81, 84, 48, 74, 26, 64, 31, 61, 65, 53, 64, 21, 86, 51
              |37, 33, 27, 77, 19, 69, 86, 77, 59, 86, 84, 22, 97, 75, 11, 32, 82, 79, 67, 63, 32, 78, 44, 47, 58, 72, 76, 9, 72, 68
              |62, 75, 51, 39, 60, 39, 34, 17, 37, 13, 18, 97, 22, 81, 89, 67, 16, 7, 83, 34, 56, 68, 60, 46, 23, 88, 57, 70, 44, 74
              |44, 56, 59, 10, 61, 81, 20, 32, 23, 42, 66, 101, 46, 36, 87, 50, 35, 56, 43, 73, 47, 21, 38, 75, 56, 46, 10, 71, 87, 32
              |42, 34, 39, 85, 30, 81, 95, 87, 67, 97, 96, 19, 107, 77, 2, 36, 92, 91, 67, 75, 40, 82, 49, 59, 70, 72, 81, 20, 84, 70
              |46, 55, 20, 56, 30, 27, 59, 43, 40, 49, 40, 60, 59, 80, 56, 48, 47, 36, 78, 20, 36, 74, 49, 12, 15, 84, 66, 37, 32, 72
              |37, 49, 51, 10, 53, 75, 22, 29, 15, 40, 63, 93, 46, 36, 79, 43, 33, 52, 41, 67, 38, 23, 30, 68, 50, 45, 12, 63, 81, 30
              |61, 75, 59, 25, 67, 58, 16, 9, 32, 8, 36, 106, 13, 70, 96, 67, 4, 26, 75, 52, 58, 55, 57, 62, 38, 78, 44, 77, 63, 64
              |32, 45, 27, 30, 33, 48, 35, 24, 14, 34, 43, 73, 45, 57, 63, 37, 29, 34, 57, 39, 26, 49, 31, 39, 23, 62, 40, 44, 53, 50
              |36, 45, 10, 54, 20, 38, 59, 45, 36, 52, 49, 54, 63, 73, 47, 38, 49, 43, 69, 30, 26, 68, 40, 20, 22, 75, 61, 28, 42, 64
              |21, 26, 10, 56, 3, 58, 65, 56, 38, 66, 67, 43, 76, 61, 31, 20, 61, 61, 55, 50, 13, 61, 27, 38, 41, 61, 57, 13, 62, 53
              |51, 49, 32, 87, 29, 62, 94, 82, 68, 90, 83, 18, 100, 91, 22, 47, 87, 80, 83, 58, 44, 92, 58, 41, 58, 88, 88, 20, 64, 83
              |22, 16, 50, 57, 43, 95, 69, 70, 46, 82, 96, 67, 91, 30, 50, 21, 75, 86, 19, 86, 32, 40, 21, 77, 73, 24, 44, 46, 100, 25
              |26, 27, 15, 64, 6, 61, 73, 63, 45, 73, 73, 35, 83, 66, 24, 23, 68, 67, 59, 54, 20, 67, 33, 40, 47, 65, 64, 5, 65, 58
              |20, 34, 34, 25, 35, 67, 36, 34, 10, 46, 61, 75, 55, 38, 61, 27, 39, 52, 38, 58, 21, 32, 16, 55, 42, 43, 25, 45, 72, 30
              |11, 4, 36, 55, 28, 82, 66, 64, 40, 76, 86, 55, 85, 40, 39, 7, 69, 77, 31, 74, 19, 46, 15, 64, 61, 37, 46, 32, 87, 34
              |42, 56, 37, 26, 44, 47, 27, 13, 17, 23, 36, 83, 34, 62, 74, 48, 18, 26, 64, 39, 37, 51, 40, 43, 22, 68, 41, 55, 52, 55
              |29, 38, 52, 28, 51, 86, 40, 46, 26, 58, 78, 87, 64, 19, 72, 34, 50, 68, 23, 77, 35, 13, 22, 75, 61, 27, 13, 59, 92, 13
              |33, 46, 37, 18, 42, 58, 26, 20, 4, 32, 49, 82, 41, 49, 70, 39, 25, 38, 51, 50, 30, 38, 29, 51, 33, 55, 29, 52, 64, 42
              |11, 18, 39, 42, 35, 81, 54, 54, 30, 66, 80, 68, 75, 29, 52, 15, 59, 71, 23, 73, 21, 32, 6, 66, 58, 29, 32, 42, 87, 21
              |31, 39, 56, 31, 54, 90, 43, 50, 30, 61, 82, 89, 68, 15, 73, 36, 54, 72, 20, 82, 38, 10, 24, 79, 65, 23, 14, 62, 96, 9
              |14, 2, 34, 59, 26, 82, 70, 67, 44, 79, 87, 50, 88, 45, 33, 8, 72, 79, 36, 74, 20, 51, 20, 62, 62, 41, 52, 28, 86, 39
              |34, 45, 16, 44, 25, 39, 49, 35, 27, 43, 43, 62, 54, 67, 55, 38, 40, 36, 65, 30, 25, 61, 36, 26, 17, 71, 53, 35, 44, 59
              |62, 65, 35, 87, 38, 42, 91, 76, 69, 81, 67, 40, 91, 102, 46, 60, 80, 67, 96, 41, 53, 99, 68, 24, 47, 102, 93, 35, 43, 94
              |47, 59, 58, 4, 62, 77, 14, 26, 22, 36, 61, 102, 40, 42, 88, 53, 29, 50, 49, 69, 48, 27, 40, 72, 52, 52, 16, 72, 82, 38
              |50, 63, 40, 33, 49, 40, 31, 14, 26, 19, 27, 87, 30, 71, 78, 55, 17, 17, 72, 33, 44, 59, 49, 40, 17, 77, 49, 59, 46, 64
              |59, 72, 48, 37, 57, 39, 32, 15, 34, 14, 20, 94, 23, 78, 87, 64, 15, 9, 80, 33, 53, 66, 57, 44, 21, 85, 55, 67, 44, 71
              |45, 55, 21, 54, 31, 27, 57, 41, 39, 46, 38, 62, 57, 79, 58, 48, 45, 34, 77, 19, 36, 73, 48, 14, 13, 83, 65, 38, 32, 71
              |47, 58, 64, 17, 66, 88, 26, 39, 29, 48, 74, 105, 52, 32, 90, 53, 41, 63, 41, 80, 51, 16, 40, 82, 63, 42, 8, 76, 94, 29
              |30, 40, 53, 26, 52, 85, 38, 45, 25, 56, 77, 89, 63, 21, 73, 36, 49, 66, 25, 77, 36, 12, 23, 75, 60, 29, 11, 61, 91, 14
              |18, 4, 38, 63, 29, 85, 74, 71, 48, 82, 91, 50, 92, 46, 33, 12, 76, 83, 36, 77, 24, 53, 23, 66, 66, 41, 54, 30, 90, 40
              |38, 35, 25, 77, 18, 65, 85, 75, 58, 84, 81, 22, 95, 77, 15, 34, 80, 76, 69, 59, 33, 80, 45, 43, 55, 75, 77, 8, 68, 70
              |16, 21, 14, 53, 8, 61, 62, 54, 35, 65, 69, 46, 75, 56, 33, 15, 60, 62, 50, 54, 8, 56, 22, 42, 43, 55, 52, 17, 66, 48
              |47, 41, 39, 89, 31, 77, 98, 89, 71, 98, 95, 11, 108, 84, 7, 42, 94, 90, 75, 72, 44, 89, 55, 55, 69, 80, 87, 21, 80, 78
              |69, 78, 43, 71, 52, 5, 71, 53, 59, 53, 32, 75, 62, 102, 75, 71, 55, 35, 100, 7, 59, 94, 72, 17, 24, 106, 85, 58, 9, 94
              |29, 43, 29, 27, 34, 53, 33, 25, 9, 36, 47, 74, 46, 52, 63, 35, 30, 38, 52, 44, 24, 44, 27, 43, 28, 58, 35, 45, 58, 45
              |33, 35, 11, 65, 9, 52, 72, 61, 46, 70, 67, 36, 80, 73, 29, 31, 66, 62, 66, 46, 24, 72, 39, 31, 40, 72, 67, 10, 56, 65
              |45, 55, 21, 53, 31, 28, 56, 40, 38, 45, 38, 63, 56, 79, 58, 47, 44, 34, 76, 20, 35, 72, 48, 15, 12, 82, 64, 39, 33, 71
              |81, 93, 60, 69, 70, 19, 64, 48, 63, 42, 14, 98, 47, 108, 96, 85, 47, 24, 109, 22, 73, 97, 82, 39, 30, 114, 86, 77, 21, 100
              |72, 85, 70, 32, 77, 64, 21, 20, 42, 13, 39, 117, 6, 77, 107, 78, 15, 31, 83, 59, 68, 62, 68, 70, 47, 86, 51, 88, 69, 72
              |6, 13, 24, 49, 18, 70, 60, 55, 32, 66, 74, 52, 76, 46, 38, 5, 60, 66, 39, 62, 7, 48, 13, 52, 49, 45, 45, 25, 75, 38
              |41, 54, 46, 10, 51, 63, 16, 16, 11, 27, 49, 91, 35, 49, 79, 47, 20, 38, 53, 55, 39, 36, 36, 58, 38, 57, 25, 62, 68, 43
              |34, 48, 33, 24, 39, 51, 29, 19, 10, 30, 43, 79, 40, 55, 68, 40, 25, 34, 56, 43, 30, 45, 32, 44, 26, 61, 35, 50, 57, 47
              |42, 34, 39, 85, 30, 81, 95, 87, 67, 97, 96, 19, 107, 77, 2, 36, 92, 91, 67, 75, 40, 82, 49, 59, 70, 72, 81, 20, 84, 70
              |38, 43, 65, 42, 62, 102, 53, 62, 42, 73, 94, 95, 79, 3, 78, 42, 66, 84, 13, 94, 47, 13, 32, 90, 77, 13, 23, 69, 108, 6
              |34, 47, 45, 11, 48, 69, 22, 25, 9, 37, 57, 88, 44, 40, 75, 41, 29, 47, 44, 60, 34, 28, 29, 61, 43, 48, 18, 59, 74, 34
              |83, 97, 84, 40, 91, 79, 28, 34, 54, 28, 52, 131, 19, 82, 121, 90, 29, 46, 90, 74, 81, 66, 78, 86, 62, 92, 56, 102, 83, 78
              |35, 29, 31, 78, 21, 74, 87, 79, 60, 89, 89, 23, 99, 72, 8, 30, 84, 83, 63, 68, 32, 76, 42, 52, 62, 68, 75, 12, 78, 65
              |72, 86, 72, 31, 79, 68, 19, 22, 43, 16, 43, 119, 10, 76, 109, 79, 17, 35, 82, 63, 70, 60, 68, 74, 50, 85, 49, 90, 73, 71
              |35, 43, 8, 55, 18, 39, 60, 47, 37, 54, 51, 51, 65, 72, 45, 37, 51, 46, 69, 32, 25, 68, 39, 21, 24, 74, 62, 26, 44, 64
              |30, 25, 27, 73, 17, 72, 82, 74, 55, 84, 85, 28, 94, 68, 13, 25, 79, 79, 59, 65, 27, 72, 38, 50, 58, 65, 70, 9, 75, 61
              |60, 73, 64, 16, 70, 70, 4, 17, 31, 21, 49, 110, 22, 61, 98, 66, 16, 39, 67, 63, 58, 45, 55, 71, 48, 70, 34, 80, 75, 56
              |75, 88, 78, 30, 84, 78, 18, 29, 46, 26, 53, 124, 21, 72, 113, 81, 25, 45, 80, 72, 73, 56, 69, 82, 59, 82, 46, 95, 83, 68
              |87, 96, 60, 85, 70, 14, 83, 65, 75, 63, 36, 88, 69, 119, 90, 89, 66, 43, 118, 23, 77, 110, 89, 33, 39, 123, 100, 74, 9, 111
              |29, 29, 17, 67, 8, 62, 76, 66, 49, 75, 75, 32, 86, 69, 21, 26, 71, 69, 61, 55, 23, 70, 36, 40, 49, 67, 67, 2, 66, 61
              |46, 59, 39, 28, 47, 44, 28, 12, 21, 20, 32, 86, 31, 66, 77, 51, 16, 22, 68, 36, 40, 54, 44, 42, 20, 72, 44, 57, 50, 59
              |86, 93, 58, 91, 66, 20, 90, 73, 79, 72, 47, 79, 79, 121, 83, 87, 74, 53, 118, 27, 76, 114, 89, 30, 44, 124, 105, 69, 15, 113
              |60, 74, 58, 24, 65, 57, 16, 8, 31, 8, 35, 105, 14, 69, 95, 66, 3, 26, 74, 51, 56, 55, 56, 60, 37, 78, 43, 76, 63, 63
              |46, 59, 47, 15, 53, 57, 16, 8, 16, 20, 42, 93, 28, 57, 82, 52, 13, 31, 61, 50, 43, 44, 42, 55, 33, 65, 33, 64, 63, 51
              |77, 90, 65, 50, 74, 42, 42, 29, 51, 19, 13, 109, 21, 94, 103, 82, 26, 13, 97, 39, 70, 81, 75, 54, 34, 102, 69, 83, 46, 88
              |32, 28, 25, 73, 16, 69, 82, 73, 55, 83, 83, 27, 94, 70, 14, 27, 79, 77, 62, 63, 28, 73, 39, 48, 57, 67, 71, 7, 73, 63|];
