Warehouses = 300;
Stores = 705;

Capacity = [40, 60, 30, 100, 80, 60, 80, 70, 30, 60, 30, 30, 80, 80, 90, 100, 80, 30, 60, 40, 70, 30, 60, 90, 30, 30, 40, 90, 80, 70, 80, 80, 90, 100, 50, 80, 60, 90, 70, 60, 90, 70, 30, 80, 90, 60, 80, 80, 80, 90, 100, 30, 100, 100, 100, 50, 40, 100, 70, 90, 50, 80, 100, 30, 100, 40, 70, 30, 40, 70, 100, 70, 50, 30, 100, 70, 40, 70, 40, 50, 50, 100, 100, 80, 30, 70, 70, 40, 60, 100, 40, 30, 90, 90, 70, 80, 50, 100, 100, 80, 100, 40, 30, 50, 70, 60, 70, 30, 60, 40, 30, 90, 60, 60, 80, 70, 30, 80, 70, 40, 80, 100, 70, 70, 70, 90, 50, 50, 40, 100, 80, 30, 90, 60, 40, 100, 90, 90, 70, 80, 40, 40, 80, 60, 50, 90, 30, 30, 30, 60, 90, 60, 30, 90, 80, 40, 30, 50, 30, 70, 90, 60, 90, 30, 70, 60, 70, 70, 40, 80, 50, 80, 30, 50, 80, 80, 90, 30, 30, 40, 40, 60, 30, 40, 80, 70, 80, 40, 90, 70, 70, 100, 100, 60, 90, 70, 80, 60, 50, 30, 40, 70, 50, 70, 80, 40, 50, 70, 80, 60, 80, 90, 80, 100, 80, 70, 50, 80, 80, 60, 60, 40, 90, 90, 90, 60, 70, 40, 90, 60, 30, 30, 90, 40, 90, 50, 40, 50, 30, 40, 70, 30, 80, 60, 100, 100, 90, 40, 90, 80, 60, 100, 60, 100, 60, 30, 70, 40, 60, 30, 70, 80, 100, 100, 60, 30, 90, 50, 50, 50, 40, 100, 40, 80, 100, 40, 30, 80, 30, 70, 90, 40, 50, 30, 60, 30, 100, 100, 70, 40, 90, 40, 100, 90, 50, 100, 90, 60, 80, 90];
FixedCost = [430, 650, 270, 940, 650, 700, 580, 550, 230, 640, 290, 320, 690, 960, 870, 1040, 640, 210, 500, 340, 780, 330, 740, 780, 260, 320, 410, 1120, 790, 510, 1010, 960, 960, 810, 370, 670, 540, 970, 560, 450, 850, 610, 390, 920, 860, 730, 1020, 860, 600, 1090, 1130, 340, 1120, 1200, 950, 520, 480, 710, 820, 690, 470, 930, 830, 230, 760, 500, 570, 210, 430, 870, 720, 840, 490, 380, 1290, 520, 440, 880, 520, 410, 610, 910, 940, 590, 290, 780, 580, 350, 620, 920, 370, 340, 710, 1150, 880, 600, 560, 770, 780, 970, 770, 290, 380, 610, 820, 550, 900, 300, 740, 390, 250, 1090, 430, 520, 570, 540, 340, 800, 670, 320, 990, 780, 560, 880, 780, 770, 650, 400, 350, 950, 720, 290, 1080, 770, 440, 1050, 940, 1070, 610, 830, 280, 390, 910, 560, 440, 960, 310, 390, 290, 570, 990, 450, 340, 740, 770, 430, 240, 530, 280, 690, 1100, 630, 790, 230, 850, 580, 810, 820, 520, 720, 580, 860, 340, 630, 780, 810, 760, 290, 260, 420, 320, 550, 270, 360, 1040, 730, 1010, 400, 1050, 560, 630, 940, 1260, 660, 1090, 530, 950, 750, 620, 330, 370, 610, 420, 700, 990, 440, 360, 540, 790, 510, 1030, 1080, 900, 970, 980, 670, 560, 810, 660, 560, 670, 340, 900, 760, 890, 530, 620, 430, 900, 730, 260, 380, 880, 280, 640, 440, 320, 370, 300, 490, 720, 390, 670, 740, 940, 1050, 990, 290, 640, 660, 580, 1270, 510, 760, 600, 290, 710, 460, 730, 250, 570, 680, 840, 1260, 740, 220, 840, 380, 410, 350, 440, 1110, 290, 1010, 860, 440, 360, 940, 320, 560, 1070, 290, 600, 310, 570, 340, 720, 1190, 710, 410, 820, 370, 1240, 650, 640, 1160, 1100, 780, 880, 640];
Goods = [18, 18, 17, 7, 15, 18, 18, 19, 8, 5, 6, 11, 14, 6, 17, 20, 5, 18, 7, 13, 19, 5, 8, 10, 6, 15, 20, 17, 13, 15, 7, 11, 12, 12, 16, 11, 19, 16, 10, 14, 6, 7, 13, 9, 16, 9, 8, 20, 6, 10, 13, 10, 9, 12, 13, 7, 16, 20, 8, 13, 11, 10, 15, 10, 10, 13, 11, 6, 11, 7, 5, 5, 6, 13, 7, 9, 16, 11, 20, 20, 15, 5, 14, 11, 10, 16, 5, 11, 8, 13, 13, 14, 5, 12, 12, 13, 19, 13, 7, 11, 11, 9, 11, 13, 9, 14, 9, 8, 9, 8, 19, 14, 12, 9, 20, 19, 19, 17, 15, 16, 14, 9, 5, 20, 13, 17, 12, 20, 15, 11, 6, 10, 8, 7, 15, 19, 14, 6, 18, 8, 18, 13, 8, 12, 19, 7, 17, 19, 17, 8, 20, 18, 20, 10, 8, 14, 15, 18, 14, 7, 20, 8, 17, 13, 13, 10, 16, 19, 19, 8, 20, 9, 13, 20, 6, 15, 9, 20, 14, 5, 8, 8, 18, 14, 15, 16, 18, 19, 15, 17, 20, 9, 8, 20, 7, 20, 11, 16, 9, 11, 15, 17, 13, 20, 16, 15, 12, 18, 10, 10, 20, 17, 6, 15, 17, 11, 14, 7, 13, 14, 20, 11, 12, 10, 18, 10, 13, 7, 12, 10, 6, 8, 17, 15, 16, 20, 16, 18, 6, 19, 6, 11, 18, 16, 12, 10, 6, 9, 17, 5, 12, 11, 7, 7, 11, 17, 10, 19, 19, 13, 11, 20, 10, 7, 11, 9, 14, 19, 12, 7, 19, 10, 16, 18, 9, 7, 12, 18, 15, 12, 17, 14, 10, 15, 16, 8, 11, 10, 5, 5, 15, 15, 17, 16, 14, 16, 17, 19, 18, 20, 19, 11, 11, 9, 19, 9, 16, 13, 16, 13, 16, 5, 14, 17, 11, 15, 20, 7, 12, 14, 6, 13, 18, 14, 6, 7, 5, 19, 5, 12, 10, 10, 19, 6, 13, 12, 13, 12, 5, 7, 11, 15, 13, 20, 5, 8, 5, 19, 20, 11, 11, 20, 13, 17, 17, 5, 18, 20, 6, 13, 6, 9, 9, 12, 17, 12, 20, 9, 17, 8, 6, 9, 6, 5, 7, 19, 19, 17, 16, 18, 17, 19, 10, 12, 9, 19, 6, 15, 9, 12, 18, 15, 17, 14, 14, 7, 14, 7, 14, 10, 18, 20, 7, 20, 5, 13, 19, 19, 11, 14, 6, 6, 5, 20, 6, 10, 5, 8, 14, 10, 14, 14, 6, 7, 16, 13, 17, 18, 16, 11, 7, 19, 11, 12, 19, 20, 20, 12, 9, 13, 16, 6, 9, 9, 15, 14, 16, 7, 19, 15, 11, 13, 17, 19, 18, 17, 15, 9, 5, 18, 12, 10, 19, 5, 17, 5, 12, 14, 19, 10, 20, 8, 6, 16, 11, 13, 10, 11, 15, 13, 5, 10, 8, 17, 11, 7, 6, 6, 10, 16, 16, 12, 9, 5, 15, 8, 13, 13, 12, 10, 11, 16, 17, 5, 17, 6, 8, 5, 9, 14, 6, 6, 6, 20, 17, 17, 15, 17, 6, 13, 6, 17, 5, 15, 13, 13, 20, 18, 20, 20, 8, 15, 9, 13, 18, 11, 11, 17, 11, 15, 9, 19, 10, 7, 12, 10, 8, 19, 10, 9, 8, 12, 10, 20, 9, 17, 8, 18, 8, 9, 5, 19, 11, 14, 20, 13, 11, 12, 10, 12, 6, 19, 11, 18, 6, 10, 9, 17, 13, 16, 10, 6, 10, 19, 12, 20, 10, 5, 13, 8, 14, 18, 6, 7, 11, 9, 17, 19, 20, 20, 8, 12, 10, 13, 10, 5, 13, 5, 10, 5, 11, 7, 19, 16, 13, 12, 16, 13, 7, 16, 11, 12, 9, 16, 9, 20, 5, 5, 19, 16, 9, 11, 15, 18, 8, 5, 8, 19, 12, 19, 9, 14, 13, 12, 10, 19, 10, 6, 18, 13, 13, 17, 8, 11, 18, 9, 9, 11, 12, 12, 12, 18, 10, 17, 11, 18, 19, 18, 19, 19, 10, 15, 14, 20, 13, 8, 11, 15, 19, 14, 6, 20, 17, 13, 14, 8, 14, 19, 15, 7, 6, 7, 14, 13, 18, 16, 20, 11, 17, 11, 8, 5, 14, 7, 14];
SupplyCost = [|73, 99, 52, 12, 64, 97, 17, 80, 40, 58, 81, 70, 63, 14, 68, 91, 61, 103, 75, 67, 88, 46, 62, 30, 39, 81, 88, 88, 54, 78, 65, 6, 45, 82, 30, 42, 84, 77, 23, 48, 57, 42, 51, 44, 39, 40, 51, 11, 95, 77, 74, 34, 61, 62, 52, 91, 53, 46, 84, 66, 93, 50, 83, 40, 52, 31, 48, 34, 60, 23, 77, 76, 72, 7, 33, 69, 37, 85, 62, 55, 12, 5, 96, 96, 87, 94, 63, 55, 41, 79, 61, 102, 15, 94, 57, 43, 82, 75, 18, 81, 72, 100, 93, 17, 63, 90, 16, 86, 35, 91, 93, 27, 78, 26, 80, 75, 31, 77, 34, 5, 65, 64, 26, 19, 33, 20, 49, 56, 59, 57, 57, 27, 42, 37, 46, 48, 36, 91, 94, 60, 46, 32, 15, 79, 94, 96, 75, 51, 41, 94, 18, 43, 108, 15, 72, 65, 36, 75, 77, 58, 91, 62, 73, 31, 59, 70, 50, 40, 56, 50, 79, 86, 60, 63, 68, 50, 80, 80, 103, 37, 38, 85, 52, 64, 76, 60, 80, 16, 60, 58, 51, 57, 35, 89, 24, 57, 48, 50, 22, 54, 48, 4, 88, 104, 54, 48, 49, 77, 51, 79, 99, 72, 2, 21, 80, 42, 40, 26, 40, 107, 22, 11, 4, 74, 22, 71, 69, 82, 65, 36, 81, 95, 21, 54, 41, 48, 76, 40, 96, 42, 48, 109, 48, 46, 33, 85, 30, 68, 61, 79, 36, 50, 105, 94, 66, 68, 53, 26, 63, 87, 43, 47, 66, 16, 13, 49, 77, 37, 83, 47, 22, 48, 81, 70, 41, 72, 68, 34, 41, 33, 86, 43, 94, 29, 71, 90, 32, 55, 58, 99, 79, 52, 35, 38, 49, 22, 72, 81, 79, 59
              |48, 74, 29, 35, 39, 72, 11, 55, 17, 41, 61, 45, 38, 22, 46, 69, 40, 79, 50, 50, 68, 27, 40, 9, 13, 56, 70, 66, 31, 55, 43, 28, 19, 63, 18, 31, 59, 53, 14, 32, 36, 28, 40, 34, 30, 26, 26, 35, 72, 56, 51, 37, 39, 46, 27, 69, 31, 24, 59, 48, 68, 47, 58, 21, 30, 10, 23, 41, 37, 25, 56, 62, 52, 22, 10, 52, 16, 60, 39, 51, 23, 22, 71, 73, 64, 69, 43, 42, 16, 55, 55, 77, 11, 75, 48, 27, 57, 55, 8, 60, 46, 75, 71, 33, 37, 65, 12, 62, 33, 71, 67, 5, 54, 7, 64, 56, 36, 55, 45, 21, 42, 49, 1, 8, 13, 20, 47, 30, 48, 48, 47, 25, 40, 30, 21, 40, 34, 65, 70, 52, 32, 15, 10, 60, 71, 71, 49, 34, 16, 73, 39, 29, 84, 20, 56, 58, 40, 53, 55, 38, 65, 36, 53, 32, 51, 48, 41, 35, 32, 26, 55, 63, 37, 39, 46, 24, 60, 55, 77, 24, 41, 62, 40, 48, 60, 41, 55, 17, 35, 33, 25, 38, 37, 64, 29, 44, 23, 26, 19, 29, 42, 30, 63, 78, 50, 35, 24, 51, 31, 54, 80, 49, 28, 29, 57, 35, 31, 36, 26, 81, 34, 29, 30, 58, 29, 55, 45, 57, 53, 16, 56, 71, 27, 43, 19, 23, 52, 16, 72, 22, 39, 84, 22, 43, 8, 60, 28, 45, 46, 59, 13, 30, 80, 70, 63, 51, 28, 24, 55, 63, 23, 47, 44, 12, 25, 36, 53, 34, 63, 23, 19, 28, 56, 47, 37, 53, 42, 11, 38, 14, 65, 18, 70, 37, 58, 65, 25, 51, 49, 80, 54, 34, 18, 35, 37, 17, 46, 55, 54, 38
              |25, 3, 59, 109, 35, 31, 82, 19, 59, 54, 65, 37, 37, 90, 57, 56, 60, 10, 31, 75, 71, 68, 59, 69, 61, 34, 77, 55, 46, 50, 59, 100, 56, 74, 73, 83, 14, 25, 84, 61, 49, 78, 85, 85, 87, 79, 47, 108, 19, 64, 29, 89, 58, 57, 52, 29, 49, 54, 15, 70, 6, 84, 22, 62, 51, 68, 51, 107, 54, 94, 35, 85, 39, 96, 69, 78, 69, 32, 55, 84, 96, 95, 36, 21, 20, 12, 45, 85, 62, 21, 81, 4, 84, 77, 72, 64, 18, 66, 80, 63, 31, 21, 58, 105, 39, 22, 83, 18, 95, 66, 21, 72, 23, 76, 80, 45, 92, 33, 114, 94, 52, 59, 73, 80, 67, 84, 85, 44, 90, 91, 71, 83, 83, 88, 53, 75, 82, 15, 42, 76, 65, 69, 84, 71, 56, 19, 28, 73, 62, 67, 112, 65, 14, 88, 56, 78, 104, 33, 61, 66, 10, 40, 40, 97, 74, 35, 72, 92, 52, 56, 43, 22, 41, 38, 59, 49, 67, 37, 12, 69, 104, 27, 85, 77, 80, 68, 19, 89, 49, 45, 48, 68, 88, 23, 98, 63, 53, 57, 82, 44, 78, 103, 16, 9, 82, 81, 50, 23, 53, 41, 78, 54, 100, 92, 52, 91, 73, 106, 68, 8, 105, 102, 103, 53, 99, 54, 47, 38, 66, 64, 28, 48, 90, 68, 59, 52, 25, 59, 20, 68, 72, 10, 51, 83, 66, 36, 82, 35, 58, 41, 63, 66, 8, 8, 88, 52, 46, 83, 75, 12, 68, 88, 37, 83, 94, 66, 44, 95, 40, 59, 82, 54, 39, 53, 81, 70, 35, 65, 97, 74, 34, 56, 18, 105, 63, 22, 87, 84, 72, 81, 32, 56, 74, 82, 84, 87, 29, 27, 38, 44
              |68, 86, 31, 66, 55, 62, 60, 67, 59, 83, 26, 47, 52, 70, 27, 40, 24, 93, 53, 9, 28, 26, 25, 58, 46, 51, 26, 38, 65, 35, 25, 71, 45, 21, 68, 22, 73, 77, 43, 77, 75, 23, 14, 21, 27, 26, 53, 66, 93, 24, 78, 88, 26, 89, 41, 96, 69, 63, 74, 13, 78, 97, 61, 67, 70, 59, 57, 43, 31, 43, 87, 12, 86, 58, 42, 7, 36, 53, 29, 102, 53, 59, 57, 95, 86, 87, 80, 10, 40, 76, 104, 86, 56, 32, 96, 74, 77, 21, 57, 27, 55, 71, 41, 55, 50, 64, 60, 83, 32, 35, 65, 55, 77, 45, 17, 92, 87, 85, 51, 61, 32, 92, 50, 57, 61, 70, 97, 51, 9, 12, 95, 76, 90, 28, 51, 90, 85, 69, 52, 100, 79, 65, 56, 20, 43, 69, 56, 17, 40, 36, 63, 77, 97, 68, 98, 106, 39, 83, 26, 19, 74, 50, 87, 37, 99, 78, 89, 27, 36, 36, 42, 87, 69, 69, 25, 54, 23, 47, 80, 73, 37, 89, 13, 6, 12, 16, 67, 49, 37, 45, 50, 17, 88, 62, 44, 90, 45, 35, 69, 57, 92, 68, 68, 83, 100, 17, 56, 62, 72, 44, 37, 30, 67, 78, 35, 24, 81, 49, 75, 88, 51, 58, 68, 98, 46, 95, 37, 47, 99, 63, 56, 49, 77, 90, 62, 46, 75, 57, 94, 31, 87, 91, 50, 94, 53, 50, 79, 75, 90, 94, 58, 24, 85, 84, 112, 91, 51, 75, 102, 78, 29, 97, 76, 60, 72, 84, 41, 31, 96, 36, 69, 69, 46, 30, 88, 16, 51, 57, 29, 37, 95, 54, 91, 46, 102, 64, 33, 102, 97, 36, 52, 78, 33, 86, 16, 43, 58, 56, 47, 73
              |46, 55, 30, 87, 36, 26, 70, 41, 56, 72, 13, 24, 34, 81, 14, 10, 21, 62, 26, 28, 19, 36, 20, 61, 47, 19, 25, 7, 54, 4, 17, 86, 42, 22, 71, 47, 45, 55, 60, 71, 64, 44, 44, 47, 52, 45, 44, 87, 66, 13, 57, 92, 21, 79, 34, 72, 59, 57, 47, 23, 48, 96, 31, 64, 60, 62, 49, 73, 22, 66, 68, 34, 68, 76, 49, 29, 45, 20, 20, 99, 73, 77, 21, 68, 61, 58, 66, 42, 43, 52, 99, 54, 68, 26, 90, 70, 51, 16, 67, 11, 31, 36, 12, 79, 33, 30, 71, 58, 60, 16, 32, 61, 54, 56, 28, 75, 93, 65, 81, 77, 17, 81, 58, 67, 63, 78, 97, 39, 45, 47, 89, 81, 91, 54, 45, 87, 87, 37, 16, 94, 75, 66, 68, 19, 12, 35, 30, 35, 43, 18, 87, 73, 66, 79, 84, 100, 69, 64, 10, 26, 43, 33, 69, 65, 93, 60, 85, 56, 28, 33, 9, 63, 55, 53, 15, 45, 16, 15, 46, 72, 68, 66, 43, 30, 30, 25, 41, 67, 25, 32, 41, 28, 92, 29, 69, 81, 39, 33, 76, 45, 90, 86, 37, 49, 97, 42, 48, 36, 64, 13, 28, 10, 84, 87, 2, 53, 80, 76, 73, 55, 76, 80, 86, 83, 71, 81, 15, 14, 89, 62, 25, 14, 85, 84, 59, 40, 53, 55, 67, 40, 84, 58, 43, 93, 56, 16, 83, 58, 79, 75, 58, 32, 52, 55, 108, 78, 40, 81, 96, 51, 39, 98, 59, 71, 84, 79, 10, 60, 76, 36, 76, 61, 13, 12, 88, 20, 30, 58, 59, 49, 73, 51, 64, 74, 90, 30, 56, 99, 91, 30, 22, 70, 47, 88, 44, 62, 34, 26, 16, 59
              |58, 83, 26, 32, 46, 74, 23, 62, 31, 56, 54, 48, 44, 32, 41, 64, 34, 88, 54, 39, 60, 19, 35, 25, 21, 57, 60, 61, 44, 51, 38, 33, 26, 54, 34, 16, 67, 64, 5, 48, 51, 15, 25, 18, 14, 13, 36, 32, 83, 49, 63, 51, 34, 62, 30, 81, 45, 38, 67, 38, 76, 63, 62, 37, 45, 26, 35, 27, 34, 13, 69, 49, 66, 21, 13, 41, 12, 61, 36, 67, 18, 23, 71, 84, 75, 79, 57, 28, 19, 65, 71, 85, 18, 66, 65, 43, 67, 47, 19, 53, 51, 78, 66, 25, 43, 69, 23, 73, 17, 64, 71, 21, 65, 9, 53, 71, 50, 68, 33, 23, 39, 65, 15, 20, 29, 33, 62, 38, 33, 33, 63, 39, 55, 14, 30, 57, 49, 71, 69, 68, 48, 32, 18, 51, 67, 75, 54, 23, 19, 66, 33, 45, 93, 30, 72, 74, 25, 66, 49, 30, 72, 42, 67, 17, 67, 61, 57, 18, 32, 26, 54, 75, 49, 51, 41, 34, 52, 56, 83, 40, 26, 75, 26, 37, 48, 33, 62, 12, 35, 37, 34, 29, 51, 67, 17, 60, 28, 26, 32, 39, 58, 31, 68, 85, 66, 21, 35, 58, 46, 54, 71, 45, 30, 40, 53, 19, 47, 25, 43, 89, 24, 24, 31, 73, 18, 70, 44, 57, 69, 32, 59, 69, 39, 59, 34, 29, 62, 30, 84, 16, 55, 91, 31, 59, 22, 61, 43, 58, 62, 73, 28, 23, 87, 79, 79, 66, 36, 38, 71, 72, 16, 62, 57, 23, 34, 53, 52, 18, 77, 23, 32, 42, 56, 43, 53, 44, 47, 26, 22, 8, 78, 30, 81, 24, 74, 69, 9, 67, 66, 71, 56, 50, 8, 51, 23, 7, 52, 59, 55, 51
              |20, 45, 21, 66, 8, 43, 41, 24, 20, 34, 46, 17, 7, 50, 31, 48, 28, 50, 20, 45, 54, 29, 28, 28, 18, 27, 59, 45, 16, 34, 30, 59, 13, 53, 36, 43, 29, 27, 40, 33, 26, 38, 48, 45, 46, 38, 6, 65, 45, 42, 27, 56, 27, 41, 11, 46, 21, 19, 29, 41, 38, 58, 27, 27, 22, 28, 11, 65, 22, 51, 36, 58, 35, 53, 25, 49, 27, 31, 24, 61, 52, 53, 44, 47, 38, 41, 30, 48, 19, 28, 61, 47, 42, 62, 52, 32, 29, 43, 38, 45, 15, 44, 50, 62, 7, 35, 42, 35, 53, 54, 37, 30, 28, 33, 56, 41, 58, 34, 71, 51, 24, 44, 30, 38, 28, 45, 59, 1, 54, 55, 50, 46, 54, 47, 10, 49, 50, 35, 44, 56, 36, 31, 41, 48, 50, 40, 18, 36, 19, 56, 69, 35, 55, 48, 48, 62, 62, 32, 40, 32, 35, 6, 36, 55, 55, 27, 47, 51, 16, 16, 31, 38, 18, 17, 32, 8, 47, 28, 47, 35, 62, 39, 47, 46, 54, 36, 24, 46, 16, 7, 5, 34, 56, 33, 55, 43, 10, 17, 43, 7, 51, 61, 32, 48, 59, 43, 10, 21, 25, 29, 65, 31, 58, 54, 37, 50, 42, 63, 35, 51, 62, 59, 61, 48, 56, 45, 23, 31, 51, 26, 26, 47, 52, 45, 22, 9, 25, 19, 46, 27, 46, 53, 9, 55, 24, 33, 48, 24, 41, 42, 23, 28, 49, 40, 70, 41, 3, 46, 57, 33, 28, 60, 24, 42, 54, 40, 29, 53, 45, 18, 43, 23, 30, 29, 51, 44, 12, 24, 56, 31, 44, 15, 43, 62, 53, 35, 45, 61, 52, 67, 25, 31, 32, 51, 46, 44, 15, 25, 28, 22
              |22, 48, 32, 62, 19, 55, 34, 31, 11, 21, 60, 30, 20, 42, 44, 62, 41, 52, 32, 57, 68, 37, 41, 21, 19, 40, 72, 59, 3, 48, 43, 52, 18, 66, 26, 50, 34, 25, 41, 19, 13, 45, 56, 52, 52, 44, 9, 62, 44, 56, 23, 44, 39, 27, 22, 41, 7, 6, 33, 53, 43, 44, 37, 15, 8, 21, 6, 67, 35, 52, 29, 70, 25, 49, 27, 61, 31, 44, 37, 47, 50, 49, 56, 45, 36, 42, 18, 57, 24, 28, 47, 51, 37, 76, 38, 19, 31, 56, 33, 59, 27, 54, 64, 61, 21, 45, 36, 35, 57, 68, 47, 25, 27, 33, 69, 31, 46, 28, 72, 47, 38, 30, 28, 33, 19, 36, 45, 13, 64, 64, 36, 35, 41, 52, 12, 35, 37, 43, 57, 42, 22, 21, 37, 62, 64, 50, 29, 46, 24, 70, 67, 21, 57, 40, 35, 47, 66, 25, 54, 44, 41, 20, 26, 58, 40, 20, 33, 57, 28, 27, 45, 35, 9, 11, 46, 9, 61, 42, 54, 23, 66, 35, 56, 57, 67, 48, 31, 44, 29, 21, 13, 46, 43, 44, 56, 29, 18, 28, 34, 7, 38, 56, 40, 54, 44, 51, 6, 29, 11, 43, 79, 45, 53, 44, 51, 56, 29, 64, 22, 56, 62, 57, 56, 36, 56, 33, 38, 44, 37, 16, 38, 61, 42, 31, 11, 17, 24, 12, 45, 34, 32, 58, 12, 42, 20, 46, 36, 17, 28, 33, 16, 38, 55, 43, 55, 29, 13, 36, 43, 36, 35, 47, 17, 36, 46, 26, 43, 58, 37, 27, 34, 9, 44, 43, 37, 57, 25, 18, 61, 34, 38, 11, 42, 64, 40, 45, 49, 47, 38, 81, 38, 17, 36, 38, 54, 44, 25, 37, 41, 11
              |67, 75, 44, 95, 57, 43, 83, 62, 73, 92, 11, 44, 54, 93, 28, 16, 33, 82, 47, 26, 4, 46, 32, 76, 62, 40, 7, 17, 73, 25, 29, 97, 58, 11, 87, 51, 66, 76, 69, 90, 83, 50, 44, 50, 56, 52, 62, 95, 87, 16, 78, 108, 34, 98, 50, 93, 78, 75, 68, 25, 68, 114, 52, 82, 79, 77, 67, 75, 38, 72, 89, 23, 89, 85, 62, 25, 56, 40, 35, 117, 81, 86, 37, 89, 82, 79, 86, 41, 57, 73, 118, 74, 80, 5, 109, 88, 72, 17, 79, 13, 52, 54, 16, 85, 52, 50, 83, 79, 63, 6, 51, 75, 75, 67, 16, 96, 108, 86, 83, 87, 34, 101, 71, 80, 78, 92, 114, 58, 41, 43, 107, 96, 108, 58, 62, 105, 103, 57, 31, 113, 93, 82, 80, 13, 18, 54, 52, 41, 57, 6, 93, 91, 86, 91, 105, 119, 71, 85, 18, 34, 64, 53, 90, 68, 112, 81, 103, 58, 44, 48, 31, 84, 75, 73, 26, 64, 12, 36, 64, 89, 69, 87, 43, 29, 20, 31, 62, 76, 42, 50, 59, 34, 107, 49, 74, 101, 56, 47, 90, 65, 107, 95, 58, 68, 115, 45, 66, 57, 83, 34, 8, 26, 94, 101, 22, 55, 97, 80, 90, 74, 81, 87, 95, 104, 76, 102, 34, 35, 109, 79, 46, 26, 99, 103, 76, 57, 74, 71, 88, 51, 102, 77, 61, 110, 70, 36, 99, 78, 99, 96, 74, 42, 71, 76, 127, 98, 59, 95, 115, 72, 49, 115, 79, 83, 97, 97, 31, 62, 98, 50, 90, 80, 34, 28, 105, 19, 51, 73, 60, 59, 94, 67, 85, 77, 110, 50, 61, 117, 110, 9, 43, 88, 57, 104, 46, 70, 55, 48, 37, 79
              |25, 34, 60, 91, 36, 59, 63, 31, 42, 23, 81, 47, 39, 67, 67, 78, 67, 33, 44, 84, 89, 67, 66, 51, 51, 52, 94, 76, 28, 67, 67, 78, 49, 89, 50, 81, 29, 16, 72, 33, 23, 76, 86, 83, 83, 75, 38, 90, 20, 78, 13, 60, 65, 24, 50, 12, 27, 35, 26, 79, 34, 51, 42, 40, 28, 50, 37, 99, 60, 83, 3, 96, 7, 79, 59, 87, 63, 54, 62, 50, 81, 78, 64, 20, 16, 25, 16, 87, 55, 19, 46, 38, 67, 96, 38, 38, 21, 79, 63, 79, 39, 53, 80, 91, 41, 48, 64, 17, 89, 86, 49, 55, 17, 64, 93, 9, 64, 5, 104, 76, 61, 24, 59, 62, 47, 61, 52, 39, 93, 94, 37, 57, 53, 83, 43, 43, 53, 42, 67, 41, 36, 48, 66, 85, 79, 49, 40, 75, 55, 88, 96, 38, 36, 66, 20, 43, 97, 7, 75, 71, 36, 41, 6, 89, 40, 12, 40, 88, 54, 55, 61, 13, 23, 22, 69, 39, 83, 56, 47, 44, 98, 9, 86, 84, 92, 74, 31, 75, 54, 45, 41, 73, 59, 48, 88, 30, 47, 56, 59, 34, 46, 84, 40, 45, 49, 81, 37, 35, 28, 58, 98, 66, 81, 66, 69, 88, 44, 95, 41, 43, 93, 87, 84, 18, 88, 18, 58, 57, 31, 44, 47, 73, 65, 35, 39, 46, 17, 43, 20, 65, 41, 43, 43, 51, 51, 57, 55, 15, 25, 6, 46, 67, 44, 28, 53, 17, 40, 58, 40, 26, 65, 56, 15, 64, 71, 36, 60, 89, 6, 56, 59, 32, 58, 65, 50, 81, 41, 48, 93, 66, 6, 42, 20, 95, 28, 48, 80, 50, 38, 101, 49, 28, 68, 52, 84, 76, 36, 45, 55, 21
              |23, 30, 35, 91, 20, 16, 67, 16, 47, 55, 38, 13, 20, 77, 29, 31, 33, 37, 7, 48, 44, 44, 32, 55, 43, 6, 50, 29, 39, 23, 31, 85, 37, 47, 63, 59, 20, 31, 64, 57, 47, 54, 59, 59, 63, 55, 33, 90, 41, 36, 35, 83, 32, 60, 30, 48, 43, 45, 22, 43, 23, 83, 6, 53, 45, 55, 38, 84, 28, 73, 45, 57, 47, 78, 49, 50, 48, 6, 29, 84, 77, 78, 18, 43, 36, 33, 47, 58, 42, 28, 83, 30, 67, 51, 74, 57, 27, 38, 65, 36, 12, 18, 33, 85, 20, 9, 68, 33, 71, 41, 11, 57, 30, 57, 52, 54, 84, 42, 91, 77, 25, 63, 56, 64, 55, 72, 83, 28, 63, 64, 72, 73, 79, 64, 37, 73, 76, 13, 21, 78, 61, 58, 67, 43, 32, 15, 9, 48, 42, 42, 93, 60, 42, 75, 64, 82, 81, 41, 33, 40, 18, 21, 47, 74, 76, 39, 71, 68, 28, 34, 16, 38, 38, 34, 31, 35, 40, 10, 24, 62, 80, 42, 58, 50, 53, 41, 16, 70, 25, 24, 32, 42, 82, 7, 77, 64, 34, 34, 70, 32, 76, 87, 12, 27, 82, 55, 37, 13, 49, 13, 52, 26, 84, 81, 25, 66, 68, 84, 61, 32, 84, 83, 87, 62, 78, 61, 20, 11, 71, 53, 1, 26, 79, 68, 48, 34, 30, 46, 42, 45, 70, 35, 35, 80, 51, 10, 74, 37, 61, 53, 50, 41, 30, 30, 92, 58, 30, 73, 78, 26, 45, 85, 39, 68, 81, 64, 16, 71, 53, 37, 70, 48, 12, 26, 76, 42, 15, 51, 72, 52, 49, 42, 39, 83, 70, 9, 64, 84, 74, 55, 4, 54, 52, 76, 58, 67, 14, 2, 10, 42
              |24, 31, 34, 90, 20, 16, 67, 17, 47, 55, 37, 12, 20, 76, 28, 30, 32, 38, 7, 47, 43, 43, 31, 55, 43, 5, 49, 28, 39, 22, 30, 85, 37, 46, 63, 58, 21, 32, 63, 57, 47, 53, 58, 59, 62, 54, 33, 90, 42, 35, 35, 83, 31, 61, 30, 48, 44, 45, 23, 42, 24, 83, 7, 54, 46, 55, 38, 83, 28, 72, 46, 56, 47, 77, 49, 49, 47, 6, 28, 85, 76, 78, 17, 44, 37, 34, 47, 57, 42, 29, 84, 31, 67, 50, 74, 58, 28, 37, 64, 35, 12, 19, 32, 85, 20, 9, 68, 34, 70, 40, 11, 57, 31, 57, 51, 54, 84, 43, 91, 77, 24, 63, 56, 64, 55, 72, 83, 28, 62, 64, 73, 73, 80, 64, 37, 73, 76, 14, 20, 78, 61, 58, 67, 42, 31, 16, 10, 47, 42, 41, 92, 60, 43, 74, 64, 83, 80, 42, 32, 39, 19, 21, 48, 73, 77, 40, 71, 67, 27, 33, 15, 39, 38, 34, 30, 35, 39, 9, 25, 62, 79, 42, 57, 49, 52, 40, 17, 69, 24, 24, 32, 41, 82, 8, 76, 65, 34, 34, 70, 32, 76, 86, 13, 28, 82, 55, 37, 13, 49, 12, 52, 25, 84, 81, 24, 65, 68, 84, 61, 33, 83, 83, 86, 63, 77, 62, 19, 10, 71, 53, 1, 25, 79, 68, 48, 34, 31, 46, 43, 45, 70, 36, 35, 81, 50, 9, 74, 38, 62, 53, 50, 40, 30, 31, 92, 58, 30, 73, 79, 27, 44, 86, 39, 68, 81, 64, 15, 70, 54, 36, 70, 48, 11, 25, 76, 41, 15, 51, 71, 52, 50, 42, 40, 82, 71, 9, 64, 85, 75, 54, 4, 54, 52, 77, 58, 66, 14, 3, 9, 42
              |68, 94, 41, 17, 57, 88, 18, 74, 37, 59, 68, 61, 56, 23, 56, 79, 49, 98, 67, 53, 74, 34, 50, 28, 31, 71, 75, 76, 51, 66, 53, 20, 37, 68, 32, 29, 78, 73, 10, 50, 56, 29, 38, 30, 25, 27, 45, 17, 92, 64, 71, 44, 49, 64, 43, 89, 51, 44, 78, 53, 87, 58, 75, 40, 50, 29, 43, 24, 49, 9, 76, 63, 72, 7, 24, 55, 26, 75, 50, 63, 3, 9, 86, 93, 84, 89, 63, 41, 31, 75, 68, 96, 12, 81, 63, 44, 77, 62, 16, 68, 64, 92, 81, 13, 55, 82, 17, 82, 22, 79, 84, 24, 74, 17, 67, 75, 42, 75, 26, 11, 54, 67, 20, 17, 31, 26, 57, 49, 45, 44, 62, 34, 50, 23, 40, 54, 44, 83, 84, 66, 49, 32, 13, 65, 82, 88, 67, 38, 31, 81, 19, 46, 103, 22, 74, 72, 25, 73, 64, 45, 84, 54, 72, 18, 65, 68, 55, 26, 46, 40, 68, 83, 57, 59, 56, 44, 67, 70, 96, 39, 27, 82, 38, 51, 62, 47, 74, 4, 49, 50, 44, 44, 44, 81, 12, 61, 40, 40, 27, 49, 54, 17, 81, 97, 62, 35, 44, 70, 51, 68, 85, 60, 16, 31, 68, 28, 45, 17, 43, 100, 15, 10, 17, 76, 11, 73, 58, 72, 69, 35, 72, 84, 30, 58, 39, 40, 72, 36, 92, 30, 53, 103, 41, 54, 28, 75, 38, 65, 64, 79, 33, 38, 98, 89, 74, 70, 46, 33, 69, 82, 31, 56, 64, 17, 24, 52, 66, 23, 83, 37, 27, 47, 70, 58, 49, 59, 60, 31, 28, 22, 85, 38, 90, 19, 75, 82, 18, 63, 64, 85, 70, 53, 23, 46, 35, 8, 64, 72, 69, 57
              |11, 16, 48, 94, 23, 35, 67, 9, 44, 39, 62, 29, 25, 74, 50, 56, 52, 20, 24, 68, 69, 57, 51, 54, 47, 30, 74, 54, 30, 47, 51, 85, 43, 70, 58, 72, 5, 10, 70, 45, 33, 67, 75, 74, 76, 67, 33, 94, 17, 59, 14, 74, 50, 43, 40, 23, 33, 38, 2, 63, 11, 69, 19, 47, 35, 53, 36, 95, 45, 81, 22, 79, 26, 81, 55, 71, 57, 31, 47, 70, 81, 81, 40, 19, 12, 11, 30, 75, 49, 6, 67, 19, 69, 76, 58, 48, 3, 61, 65, 60, 21, 29, 58, 91, 27, 24, 68, 9, 83, 65, 25, 57, 8, 62, 75, 32, 76, 20, 101, 79, 44, 45, 59, 65, 52, 69, 70, 31, 81, 82, 57, 67, 68, 77, 39, 60, 67, 18, 44, 61, 49, 54, 69, 66, 56, 25, 20, 64, 49, 67, 98, 50, 25, 72, 43, 65, 92, 20, 56, 57, 12, 28, 26, 85, 60, 20, 57, 81, 41, 45, 40, 13, 26, 22, 52, 35, 64, 34, 24, 54, 92, 17, 75, 70, 75, 60, 9, 75, 40, 33, 35, 60, 73, 24, 85, 49, 40, 46, 66, 30, 63, 88, 16, 23, 67, 71, 35, 14, 38, 37, 77, 48, 85, 76, 49, 80, 58, 93, 52, 24, 91, 88, 88, 41, 86, 41, 40, 36, 52, 49, 24, 50, 74, 53, 43, 39, 10, 44, 18, 56, 57, 26, 37, 68, 51, 35, 67, 20, 44, 30, 48, 56, 23, 11, 75, 38, 33, 67, 61, 4, 57, 73, 22, 68, 78, 51, 40, 83, 30, 47, 66, 39, 36, 47, 65, 64, 25, 50, 85, 61, 25, 41, 15, 92, 51, 24, 75, 70, 58, 80, 28, 41, 62, 66, 74, 74, 18, 23, 34, 28
              |51, 77, 31, 32, 42, 74, 10, 57, 20, 43, 62, 47, 40, 20, 47, 70, 41, 82, 52, 50, 69, 27, 41, 11, 16, 58, 71, 67, 34, 56, 45, 26, 22, 64, 19, 31, 62, 56, 12, 34, 39, 28, 39, 33, 29, 26, 29, 32, 74, 58, 54, 37, 40, 48, 29, 72, 34, 26, 61, 48, 71, 48, 60, 23, 33, 12, 26, 39, 38, 23, 59, 62, 55, 19, 11, 53, 17, 62, 41, 52, 20, 19, 73, 76, 67, 72, 46, 42, 18, 58, 57, 80, 8, 76, 50, 29, 60, 56, 6, 61, 48, 77, 72, 30, 40, 67, 10, 65, 31, 72, 70, 7, 57, 6, 64, 59, 36, 58, 43, 18, 43, 51, 3, 7, 15, 19, 47, 33, 47, 47, 49, 25, 40, 28, 23, 42, 34, 68, 72, 53, 34, 17, 8, 60, 73, 73, 52, 34, 18, 74, 36, 31, 86, 18, 59, 60, 38, 56, 57, 39, 68, 39, 55, 30, 52, 50, 42, 33, 34, 28, 57, 66, 39, 42, 48, 27, 61, 57, 80, 25, 39, 65, 40, 48, 60, 42, 57, 14, 37, 35, 28, 39, 37, 66, 27, 46, 25, 28, 18, 32, 43, 28, 65, 81, 51, 35, 27, 54, 34, 56, 81, 51, 25, 28, 59, 34, 32, 34, 28, 84, 31, 26, 28, 60, 27, 57, 47, 59, 55, 18, 58, 73, 26, 44, 22, 25, 54, 19, 75, 22, 40, 87, 25, 44, 11, 62, 29, 48, 48, 62, 16, 31, 82, 72, 64, 53, 30, 24, 56, 65, 24, 47, 47, 10, 24, 38, 55, 32, 66, 25, 18, 30, 58, 49, 38, 54, 45, 13, 37, 14, 68, 21, 73, 34, 60, 67, 24, 52, 51, 81, 56, 37, 18, 36, 37, 15, 49, 58, 56, 40
              |43, 68, 16, 44, 31, 61, 24, 47, 19, 44, 48, 34, 29, 34, 33, 56, 27, 73, 40, 38, 55, 15, 28, 18, 7, 45, 58, 53, 30, 42, 31, 40, 11, 51, 28, 24, 52, 49, 17, 38, 38, 19, 31, 26, 25, 18, 21, 44, 68, 44, 48, 49, 26, 51, 16, 67, 32, 25, 52, 36, 61, 57, 48, 27, 32, 18, 21, 42, 24, 28, 55, 50, 52, 31, 3, 41, 5, 49, 26, 61, 30, 32, 60, 69, 60, 64, 44, 33, 4, 50, 64, 70, 22, 63, 56, 34, 52, 42, 20, 48, 37, 65, 58, 39, 28, 55, 25, 58, 31, 58, 57, 16, 50, 10, 52, 57, 49, 54, 48, 31, 29, 54, 11, 21, 21, 32, 57, 23, 39, 40, 55, 37, 50, 25, 15, 49, 45, 57, 58, 60, 39, 24, 22, 47, 59, 61, 40, 23, 4, 60, 46, 36, 78, 32, 60, 66, 40, 52, 43, 26, 58, 27, 53, 32, 59, 46, 49, 30, 20, 14, 43, 60, 35, 36, 34, 20, 47, 44, 69, 32, 40, 60, 32, 37, 48, 29, 47, 23, 23, 23, 19, 26, 48, 54, 32, 50, 13, 14, 31, 25, 51, 41, 54, 70, 59, 26, 21, 43, 34, 42, 67, 37, 38, 41, 45, 30, 40, 40, 34, 74, 38, 37, 41, 61, 33, 58, 33, 46, 59, 22, 46, 59, 39, 50, 23, 14, 48, 17, 69, 10, 47, 77, 16, 53, 12, 49, 40, 43, 51, 60, 17, 18, 72, 64, 72, 54, 21, 36, 62, 57, 11, 57, 43, 25, 38, 43, 41, 31, 63, 11, 31, 30, 44, 35, 48, 41, 33, 16, 35, 8, 64, 16, 66, 39, 63, 55, 22, 61, 57, 68, 43, 39, 10, 46, 29, 21, 38, 45, 43, 37
              |9, 35, 34, 75, 10, 43, 48, 17, 25, 27, 56, 23, 13, 55, 41, 55, 41, 39, 22, 58, 64, 42, 40, 34, 29, 31, 69, 52, 12, 42, 41, 65, 25, 64, 39, 56, 20, 14, 51, 30, 19, 51, 61, 58, 59, 51, 14, 74, 33, 53, 14, 57, 39, 33, 24, 33, 16, 20, 19, 53, 29, 55, 25, 28, 18, 34, 16, 77, 34, 62, 23, 70, 22, 62, 37, 61, 39, 34, 36, 57, 62, 61, 46, 34, 25, 30, 20, 61, 31, 16, 55, 38, 50, 72, 46, 31, 18, 53, 46, 55, 16, 41, 57, 72, 15, 33, 49, 23, 65, 62, 35, 37, 15, 43, 67, 30, 59, 21, 83, 60, 35, 35, 40, 45, 33, 50, 56, 13, 67, 68, 45, 49, 52, 60, 20, 46, 50, 30, 48, 50, 34, 35, 49, 59, 57, 37, 18, 49, 31, 64, 79, 33, 44, 53, 38, 55, 75, 19, 50, 45, 28, 15, 23, 67, 49, 15, 43, 64, 28, 29, 38, 25, 10, 6, 43, 16, 57, 33, 41, 36, 75, 26, 61, 58, 66, 48, 17, 56, 27, 19, 17, 47, 56, 32, 67, 37, 22, 30, 47, 11, 49, 69, 27, 41, 54, 56, 16, 16, 21, 35, 74, 41, 66, 58, 45, 63, 41, 74, 35, 43, 72, 69, 69, 37, 67, 35, 33, 35, 43, 30, 27, 52, 56, 40, 24, 22, 13, 25, 34, 40, 42, 45, 19, 53, 32, 37, 49, 12, 34, 30, 29, 41, 41, 30, 64, 31, 15, 49, 51, 23, 41, 58, 13, 49, 59, 36, 36, 66, 32, 31, 47, 21, 35, 39, 49, 55, 16, 31, 69, 43, 31, 22, 31, 74, 44, 33, 57, 57, 47, 76, 28, 26, 44, 50, 59, 55, 14, 25, 33, 14
              |11, 33, 29, 78, 4, 33, 53, 12, 31, 38, 46, 12, 6, 62, 32, 44, 33, 38, 11, 50, 54, 38, 32, 40, 31, 19, 59, 41, 22, 32, 33, 71, 25, 54, 47, 53, 17, 20, 53, 40, 30, 48, 56, 55, 57, 48, 18, 78, 36, 43, 22, 66, 31, 44, 21, 39, 27, 28, 18, 45, 25, 66, 15, 37, 28, 40, 22, 76, 26, 63, 32, 61, 33, 65, 38, 53, 38, 22, 28, 68, 65, 65, 35, 38, 29, 30, 31, 56, 31, 19, 67, 35, 54, 61, 57, 41, 19, 44, 51, 44, 5, 32, 46, 74, 8, 23, 54, 26, 64, 52, 25, 42, 20, 45, 58, 40, 68, 30, 83, 64, 26, 47, 43, 50, 39, 57, 66, 13, 62, 63, 56, 57, 63, 58, 23, 56, 60, 22, 36, 61, 44, 42, 54, 50, 45, 28, 7, 44, 31, 54, 81, 43, 43, 60, 49, 66, 74, 28, 40, 38, 22, 9, 34, 66, 60, 25, 54, 62, 22, 26, 26, 30, 21, 18, 34, 20, 47, 22, 34, 45, 73, 32, 56, 51, 57, 41, 12, 58, 20, 14, 18, 41, 65, 22, 67, 48, 22, 26, 55, 16, 59, 73, 19, 35, 65, 52, 21, 8, 32, 23, 64, 31, 71, 65, 34, 60, 51, 75, 45, 38, 74, 72, 73, 48, 68, 46, 23, 24, 55, 37, 16, 41, 63, 51, 32, 21, 18, 31, 37, 37, 53, 41, 21, 64, 36, 25, 58, 22, 45, 40, 35, 36, 37, 29, 75, 42, 16, 57, 62, 22, 38, 69, 23, 54, 66, 47, 25, 64, 41, 28, 55, 31, 24, 30, 59, 47, 6, 36, 66, 42, 39, 27, 34, 74, 55, 23, 56, 68, 58, 66, 17, 37, 43, 60, 55, 56, 3, 15, 21, 25
              |32, 57, 37, 55, 28, 65, 27, 40, 7, 18, 67, 40, 29, 33, 51, 70, 47, 60, 42, 62, 75, 40, 47, 15, 20, 50, 79, 67, 11, 56, 50, 44, 22, 72, 16, 50, 43, 34, 37, 12, 13, 46, 58, 53, 51, 45, 17, 55, 51, 63, 31, 34, 45, 24, 28, 47, 9, 4, 42, 58, 52, 36, 47, 5, 8, 14, 12, 64, 41, 48, 34, 74, 29, 43, 26, 65, 32, 54, 44, 38, 45, 42, 66, 52, 44, 51, 20, 59, 26, 37, 40, 61, 31, 83, 31, 9, 39, 62, 27, 66, 36, 64, 73, 55, 30, 55, 28, 43, 55, 75, 57, 19, 35, 29, 74, 33, 36, 33, 68, 40, 45, 27, 24, 26, 11, 27, 36, 22, 66, 66, 29, 25, 31, 51, 16, 26, 27, 53, 67, 35, 14, 12, 30, 68, 73, 60, 39, 48, 26, 78, 60, 12, 65, 31, 34, 41, 63, 31, 61, 49, 51, 29, 30, 55, 34, 26, 25, 56, 35, 31, 54, 43, 16, 20, 52, 15, 67, 51, 64, 13, 64, 41, 58, 61, 72, 52, 40, 39, 36, 29, 19, 50, 33, 54, 52, 24, 23, 32, 25, 16, 29, 48, 50, 64, 36, 53, 13, 39, 8, 51, 86, 53, 45, 34, 59, 56, 19, 59, 13, 65, 57, 50, 48, 35, 52, 32, 45, 53, 33, 8, 48, 70, 33, 24, 4, 22, 33, 9, 52, 36, 23, 67, 18, 33, 16, 56, 26, 24, 24, 36, 10, 42, 65, 52, 48, 28, 21, 26, 37, 45, 37, 38, 23, 28, 37, 18, 52, 56, 40, 31, 25, 4, 53, 50, 28, 63, 34, 12, 60, 33, 42, 12, 50, 60, 37, 55, 47, 38, 32, 88, 48, 12, 36, 28, 55, 41, 35, 47, 50, 16
              |44, 61, 66, 78, 49, 81, 51, 53, 38, 14, 94, 62, 52, 51, 78, 95, 76, 60, 62, 92, 102, 71, 75, 43, 51, 70, 107, 92, 32, 81, 78, 63, 52, 101, 37, 81, 53, 38, 66, 20, 22, 77, 89, 83, 81, 75, 44, 77, 47, 90, 34, 38, 74, 7, 57, 37, 28, 33, 50, 88, 59, 25, 63, 31, 27, 42, 40, 92, 69, 76, 27, 104, 23, 67, 57, 95, 62, 73, 72, 24, 71, 66, 85, 47, 42, 51, 20, 90, 56, 42, 19, 65, 57, 110, 12, 25, 45, 90, 53, 93, 56, 77, 97, 81, 53, 70, 52, 44, 85, 101, 72, 47, 40, 59, 103, 18, 42, 29, 96, 63, 72, 4, 53, 52, 39, 45, 27, 47, 96, 97, 12, 39, 29, 81, 46, 20, 32, 65, 87, 14, 20, 37, 56, 96, 96, 73, 58, 79, 56, 103, 84, 23, 63, 51, 8, 16, 92, 29, 88, 78, 60, 52, 22, 84, 13, 29, 17, 86, 63, 61, 77, 40, 30, 33, 80, 43, 95, 73, 73, 30, 93, 36, 89, 91, 101, 82, 53, 67, 64, 55, 47, 80, 37, 70, 81, 8, 52, 62, 44, 41, 22, 69, 63, 71, 22, 83, 40, 54, 24, 74, 113, 79, 66, 48, 84, 87, 25, 86, 26, 70, 84, 75, 69, 11, 80, 9, 71, 75, 4, 36, 66, 92, 47, 12, 35, 51, 39, 40, 47, 66, 19, 70, 47, 27, 46, 76, 36, 30, 7, 22, 40, 72, 70, 55, 26, 10, 47, 40, 13, 51, 68, 30, 28, 52, 54, 17, 76, 86, 26, 61, 44, 28, 75, 77, 28, 91, 56, 42, 90, 64, 31, 42, 47, 88, 6, 70, 77, 24, 12, 115, 68, 19, 67, 30, 86, 69, 53, 65, 72, 26
              |30, 38, 31, 89, 24, 16, 67, 24, 49, 60, 30, 12, 22, 77, 22, 24, 28, 45, 11, 41, 36, 40, 26, 56, 43, 2, 42, 22, 42, 15, 25, 85, 37, 39, 65, 54, 28, 39, 61, 61, 51, 49, 53, 55, 59, 50, 35, 89, 49, 28, 42, 85, 26, 66, 29, 55, 47, 47, 30, 36, 31, 86, 14, 56, 49, 56, 40, 80, 24, 70, 52, 49, 53, 76, 48, 43, 46, 4, 23, 89, 75, 77, 15, 51, 44, 41, 52, 52, 41, 36, 88, 38, 67, 43, 79, 61, 35, 31, 64, 28, 16, 23, 26, 82, 22, 14, 68, 41, 67, 33, 16, 57, 38, 56, 44, 60, 86, 49, 87, 76, 20, 68, 55, 64, 56, 73, 87, 30, 56, 58, 77, 75, 83, 60, 38, 77, 79, 20, 15, 83, 64, 60, 67, 35, 24, 20, 15, 42, 41, 34, 90, 63, 49, 75, 70, 88, 76, 48, 25, 34, 26, 23, 54, 70, 81, 45, 75, 63, 25, 31, 8, 46, 42, 39, 24, 37, 32, 2, 30, 64, 75, 49, 52, 43, 45, 35, 24, 68, 22, 24, 33, 36, 84, 13, 73, 69, 34, 32, 71, 35, 80, 86, 20, 34, 86, 50, 39, 20, 53, 5, 45, 19, 83, 82, 17, 61, 71, 81, 64, 39, 80, 81, 86, 69, 75, 67, 14, 3, 76, 55, 8, 19, 80, 73, 50, 34, 37, 48, 50, 42, 74, 42, 36, 84, 51, 4, 76, 43, 66, 60, 51, 37, 36, 38, 97, 64, 32, 75, 83, 34, 42, 89, 45, 68, 81, 68, 9, 66, 61, 34, 71, 51, 4, 19, 79, 34, 17, 52, 67, 50, 57, 43, 47, 79, 76, 14, 61, 89, 79, 47, 5, 58, 49, 79, 53, 64, 19, 9, 3, 47
              |76, 102, 47, 12, 66, 95, 26, 82, 45, 67, 73, 68, 64, 28, 62, 84, 55, 107, 74, 57, 78, 40, 56, 36, 40, 78, 78, 81, 59, 72, 59, 22, 45, 72, 40, 31, 87, 82, 17, 58, 64, 33, 40, 33, 27, 31, 54, 13, 100, 69, 80, 49, 55, 72, 51, 97, 60, 52, 86, 57, 95, 64, 83, 48, 59, 37, 52, 19, 55, 10, 84, 65, 80, 10, 32, 58, 33, 82, 57, 69, 6, 12, 93, 102, 92, 98, 71, 43, 39, 83, 75, 104, 20, 84, 70, 52, 86, 66, 25, 73, 72, 99, 86, 4, 63, 89, 25, 91, 21, 83, 92, 32, 83, 25, 70, 84, 47, 84, 19, 15, 60, 75, 28, 26, 40, 33, 63, 57, 46, 44, 69, 40, 56, 25, 48, 61, 50, 91, 90, 73, 57, 40, 21, 69, 87, 96, 75, 42, 39, 85, 12, 54, 112, 28, 83, 79, 21, 82, 69, 50, 92, 62, 81, 17, 72, 76, 62, 26, 53, 47, 75, 92, 65, 68, 62, 52, 71, 77, 103, 47, 23, 91, 41, 54, 65, 52, 82, 12, 56, 57, 52, 49, 50, 88, 9, 69, 48, 47, 34, 57, 61, 16, 89, 105, 68, 37, 52, 78, 59, 75, 89, 66, 17, 36, 74, 29, 52, 10, 50, 108, 7, 5, 16, 84, 7, 81, 65, 78, 77, 43, 80, 90, 36, 66, 48, 49, 80, 44, 101, 37, 60, 111, 50, 60, 36, 82, 44, 74, 72, 87, 41, 44, 107, 98, 81, 78, 55, 39, 76, 91, 37, 62, 73, 25, 28, 60, 73, 23, 91, 44, 34, 55, 77, 64, 55, 63, 67, 39, 27, 29, 93, 46, 99, 13, 83, 89, 21, 69, 71, 88, 77, 61, 29, 52, 37, 14, 72, 80, 76, 66
              |68, 88, 78, 66, 69, 105, 47, 77, 48, 36, 109, 81, 71, 42, 93, 113, 88, 88, 83, 102, 117, 79, 89, 46, 59, 91, 120, 110, 51, 99, 91, 50, 63, 114, 36, 85, 78, 64, 65, 32, 43, 82, 94, 87, 84, 80, 59, 65, 75, 105, 60, 21, 87, 32, 70, 66, 46, 46, 76, 99, 85, 7, 86, 39, 44, 46, 54, 88, 83, 73, 55, 114, 50, 60, 62, 105, 69, 95, 86, 5, 64, 58, 107, 76, 70, 79, 44, 96, 65, 68, 11, 92, 53, 125, 17, 33, 71, 104, 50, 108, 77, 102, 115, 72, 72, 94, 48, 71, 85, 118, 96, 49, 66, 61, 115, 47, 24, 57, 89, 55, 87, 31, 55, 49, 43, 38, 7, 64, 102, 102, 18, 31, 14, 83, 58, 16, 21, 90, 108, 15, 29, 40, 52, 110, 115, 98, 79, 87, 65, 120, 73, 30, 91, 42, 36, 16, 89, 56, 103, 89, 86, 71, 50, 82, 15, 54, 18, 87, 77, 73, 96, 68, 52, 55, 94, 58, 109, 93, 99, 32, 91, 64, 94, 101, 112, 93, 77, 63, 79, 72, 62, 90, 20, 93, 76, 26, 65, 74, 37, 58, 14, 57, 87, 97, 7, 89, 55, 77, 40, 94, 129, 95, 55, 34, 102, 89, 24, 80, 30, 97, 77, 66, 57, 40, 75, 38, 88, 95, 25, 42, 88, 112, 34, 21, 45, 64, 65, 50, 76, 74, 19, 98, 60, 11, 52, 97, 27, 55, 31, 51, 47, 81, 97, 82, 11, 38, 63, 32, 17, 77, 75, 8, 53, 48, 42, 25, 94, 86, 54, 71, 37, 42, 95, 93, 17, 104, 76, 48, 90, 68, 60, 53, 75, 83, 30, 94, 78, 5, 17, 130, 89, 35, 72, 19, 91, 67, 75, 87, 92, 48
              |69, 86, 32, 69, 56, 61, 63, 68, 61, 85, 24, 48, 53, 73, 27, 38, 25, 93, 53, 8, 26, 28, 26, 61, 48, 50, 23, 37, 67, 34, 25, 74, 47, 18, 71, 25, 73, 78, 46, 80, 77, 26, 17, 24, 30, 29, 55, 69, 94, 23, 79, 91, 27, 91, 42, 97, 71, 65, 75, 13, 79, 100, 61, 69, 72, 61, 59, 46, 32, 46, 89, 9, 87, 61, 45, 6, 38, 53, 30, 104, 56, 63, 56, 96, 87, 87, 82, 14, 43, 77, 107, 86, 59, 29, 98, 76, 77, 19, 60, 25, 55, 71, 39, 58, 51, 63, 63, 84, 36, 32, 65, 58, 78, 47, 14, 94, 90, 86, 54, 64, 32, 94, 52, 60, 64, 73, 100, 53, 12, 14, 97, 78, 93, 32, 53, 92, 87, 69, 51, 103, 81, 67, 59, 18, 41, 69, 57, 20, 43, 34, 66, 79, 98, 71, 100, 109, 42, 84, 25, 20, 74, 51, 88, 41, 101, 80, 92, 30, 37, 38, 41, 88, 71, 70, 25, 56, 21, 47, 79, 75, 40, 90, 16, 7, 9, 17, 68, 52, 38, 46, 52, 19, 91, 62, 47, 92, 46, 37, 72, 59, 94, 71, 68, 82, 102, 20, 58, 63, 74, 43, 34, 30, 70, 81, 34, 27, 83, 52, 77, 88, 54, 61, 71, 100, 49, 97, 37, 47, 101, 65, 56, 47, 80, 92, 64, 47, 76, 59, 95, 33, 90, 91, 52, 96, 55, 50, 82, 77, 92, 95, 60, 26, 85, 85, 115, 93, 52, 78, 105, 79, 32, 100, 77, 63, 75, 86, 40, 34, 98, 38, 72, 71, 45, 30, 90, 15, 52, 59, 32, 40, 96, 56, 92, 49, 104, 63, 36, 104, 99, 33, 52, 80, 36, 89, 19, 47, 58, 56, 46, 74
              |31, 47, 18, 76, 19, 30, 55, 28, 39, 54, 27, 8, 17, 65, 13, 27, 16, 53, 14, 31, 34, 27, 14, 45, 31, 14, 39, 24, 36, 13, 14, 72, 25, 34, 54, 41, 33, 40, 48, 54, 46, 36, 41, 42, 45, 37, 26, 75, 54, 23, 42, 75, 14, 61, 17, 58, 41, 39, 35, 26, 39, 79, 22, 47, 43, 45, 31, 66, 11, 56, 52, 42, 52, 63, 35, 34, 32, 17, 11, 81, 61, 64, 28, 56, 48, 48, 49, 40, 28, 38, 82, 47, 54, 42, 72, 52, 38, 25, 52, 25, 16, 35, 30, 69, 15, 26, 56, 45, 53, 33, 28, 45, 39, 43, 39, 59, 76, 49, 74, 64, 8, 64, 43, 52, 46, 62, 79, 21, 45, 47, 71, 64, 74, 47, 28, 69, 69, 31, 26, 77, 57, 49, 54, 30, 30, 33, 17, 30, 28, 35, 77, 55, 58, 63, 67, 82, 63, 48, 21, 22, 35, 16, 53, 57, 75, 44, 67, 50, 12, 18, 11, 49, 38, 36, 15, 28, 28, 12, 42, 55, 62, 52, 40, 33, 38, 24, 28, 55, 9, 14, 24, 24, 75, 25, 60, 64, 23, 18, 60, 28, 72, 73, 29, 45, 79, 38, 31, 23, 46, 10, 45, 12, 71, 71, 16, 48, 62, 68, 55, 50, 67, 68, 73, 66, 61, 64, 3, 13, 72, 45, 17, 28, 69, 66, 41, 23, 38, 37, 55, 29, 66, 53, 26, 76, 39, 17, 66, 41, 62, 59, 41, 23, 47, 45, 90, 60, 22, 64, 78, 39, 28, 81, 42, 56, 69, 61, 9, 53, 61, 21, 60, 44, 12, 10, 71, 27, 14, 41, 54, 37, 58, 33, 52, 66, 73, 26, 47, 81, 73, 47, 13, 52, 36, 70, 41, 51, 19, 17, 11, 42
              |48, 58, 29, 85, 37, 30, 69, 43, 56, 73, 10, 25, 35, 79, 12, 11, 19, 65, 28, 24, 17, 34, 18, 61, 46, 22, 22, 8, 54, 5, 15, 85, 41, 19, 71, 44, 48, 57, 58, 72, 64, 41, 40, 44, 49, 43, 44, 85, 69, 9, 59, 92, 19, 79, 33, 74, 59, 57, 50, 20, 51, 96, 34, 64, 61, 61, 49, 70, 21, 64, 69, 30, 70, 74, 48, 26, 43, 23, 19, 99, 71, 75, 25, 71, 64, 61, 67, 38, 42, 54, 100, 58, 67, 24, 91, 70, 54, 12, 66, 8, 33, 40, 13, 77, 33, 34, 70, 60, 57, 15, 35, 60, 56, 54, 25, 77, 92, 67, 78, 75, 17, 82, 57, 66, 62, 77, 97, 40, 41, 43, 89, 80, 91, 51, 45, 87, 86, 40, 20, 95, 75, 66, 67, 16, 14, 39, 33, 32, 42, 17, 85, 73, 69, 77, 85, 100, 66, 65, 6, 24, 46, 34, 71, 62, 93, 62, 85, 53, 27, 32, 12, 65, 56, 54, 12, 46, 12, 18, 49, 72, 65, 68, 39, 27, 26, 22, 43, 65, 25, 32, 41, 25, 91, 32, 66, 82, 39, 32, 75, 46, 90, 84, 40, 53, 97, 39, 48, 38, 64, 15, 27, 9, 82, 86, 3, 50, 80, 73, 73, 58, 74, 77, 84, 85, 68, 83, 16, 17, 90, 62, 28, 17, 84, 84, 59, 39, 55, 54, 70, 38, 84, 62, 43, 93, 55, 19, 83, 59, 80, 77, 57, 30, 56, 58, 108, 79, 40, 80, 96, 53, 37, 98, 60, 70, 83, 79, 12, 57, 78, 34, 75, 62, 16, 11, 88, 16, 31, 57, 56, 47, 75, 50, 67, 71, 91, 34, 53, 99, 91, 29, 24, 70, 45, 87, 41, 60, 36, 29, 18, 60
              |25, 44, 50, 76, 31, 62, 47, 34, 27, 9, 76, 43, 33, 52, 61, 76, 59, 45, 43, 76, 84, 56, 58, 36, 38, 51, 89, 73, 16, 63, 60, 63, 37, 83, 35, 69, 34, 20, 58, 17, 8, 64, 75, 71, 70, 63, 28, 75, 34, 73, 16, 46, 57, 13, 41, 27, 13, 21, 32, 71, 41, 39, 43, 24, 14, 35, 25, 85, 52, 69, 14, 88, 8, 64, 46, 79, 50, 54, 55, 39, 66, 63, 65, 34, 27, 36, 1, 76, 43, 24, 37, 48, 52, 92, 28, 22, 27, 73, 48, 75, 37, 58, 78, 76, 35, 51, 49, 27, 75, 83, 52, 40, 22, 50, 86, 12, 49, 14, 89, 60, 54, 15, 45, 47, 32, 45, 40, 30, 82, 83, 26, 42, 39, 71, 31, 30, 39, 46, 68, 31, 21, 32, 51, 79, 77, 54, 38, 65, 43, 85, 81, 22, 49, 50, 17, 35, 84, 13, 70, 62, 42, 34, 9, 75, 30, 10, 27, 76, 46, 45, 58, 25, 12, 14, 63, 27, 77, 54, 55, 28, 84, 22, 75, 76, 85, 66, 34, 60, 46, 38, 31, 64, 45, 51, 73, 18, 36, 46, 43, 24, 33, 68, 44, 53, 37, 70, 25, 35, 13, 55, 95, 61, 65, 51, 66, 75, 30, 80, 26, 53, 78, 71, 68, 17, 73, 15, 53, 56, 23, 29, 47, 72, 49, 23, 25, 36, 20, 29, 34, 53, 27, 54, 31, 38, 37, 57, 40, 11, 14, 15, 31, 57, 53, 38, 45, 11, 30, 42, 31, 33, 54, 43, 9, 49, 55, 22, 57, 76, 19, 46, 43, 17, 56, 59, 36, 74, 37, 33, 80, 52, 22, 29, 33, 81, 23, 51, 67, 39, 28, 97, 48, 13, 55, 38, 73, 61, 34, 45, 53, 8
              |71, 85, 37, 79, 58, 57, 72, 68, 67, 89, 18, 48, 55, 82, 27, 32, 28, 92, 53, 12, 17, 35, 28, 68, 55, 49, 14, 31, 71, 32, 27, 83, 52, 10, 78, 35, 73, 80, 55, 85, 81, 35, 27, 34, 40, 38, 60, 79, 94, 19, 81, 98, 30, 96, 47, 99, 76, 71, 75, 16, 78, 107, 60, 76, 76, 69, 64, 56, 35, 56, 91, 3, 91, 70, 52, 9, 46, 50, 32, 111, 66, 72, 52, 96, 88, 87, 86, 24, 49, 78, 113, 85, 67, 19, 105, 82, 78, 16, 68, 20, 56, 67, 33, 68, 53, 61, 72, 85, 46, 24, 62, 66, 80, 56, 4, 97, 98, 89, 64, 73, 34, 99, 60, 69, 71, 81, 107, 57, 22, 24, 103, 86, 100, 41, 58, 99, 95, 67, 46, 109, 88, 74, 68, 12, 35, 66, 57, 28, 49, 25, 76, 85, 96, 80, 104, 115, 52, 87, 22, 25, 73, 54, 91, 51, 107, 83, 98, 40, 41, 43, 39, 89, 75, 73, 25, 60, 16, 45, 77, 82, 50, 92, 26, 14, 2, 22, 68, 62, 41, 49, 56, 24, 98, 60, 57, 97, 51, 42, 80, 63, 101, 80, 67, 80, 109, 29, 63, 63, 80, 42, 24, 29, 79, 90, 30, 37, 90, 62, 84, 86, 64, 71, 80, 104, 59, 101, 37, 44, 106, 72, 54, 42, 88, 98, 70, 52, 78, 65, 95, 40, 96, 89, 57, 103, 62, 47, 90, 80, 97, 98, 67, 33, 83, 84, 121, 97, 56, 86, 111, 79, 39, 108, 80, 72, 84, 92, 38, 44, 100, 43, 80, 76, 43, 30, 98, 13, 53, 66, 42, 48, 98, 62, 92, 59, 109, 61, 46, 111, 105, 23, 50, 85, 44, 96, 29, 56, 59, 55, 45, 79
              |25, 4, 58, 108, 35, 30, 81, 18, 59, 54, 64, 36, 37, 89, 56, 55, 59, 11, 30, 74, 70, 67, 58, 68, 61, 33, 76, 54, 46, 49, 58, 99, 55, 73, 73, 83, 14, 25, 83, 61, 48, 77, 84, 84, 86, 78, 47, 108, 20, 63, 29, 89, 57, 57, 51, 30, 49, 53, 15, 69, 5, 84, 21, 62, 50, 68, 50, 106, 53, 93, 35, 84, 40, 95, 68, 77, 69, 31, 54, 84, 95, 95, 35, 21, 21, 12, 45, 84, 62, 21, 81, 4, 84, 76, 72, 63, 18, 65, 80, 62, 30, 20, 57, 104, 38, 21, 83, 19, 94, 65, 20, 71, 23, 75, 79, 45, 92, 33, 113, 93, 51, 59, 73, 79, 67, 84, 85, 43, 89, 90, 71, 82, 83, 88, 52, 75, 82, 14, 41, 76, 64, 69, 83, 70, 55, 18, 27, 73, 62, 66, 111, 65, 15, 87, 56, 79, 104, 33, 60, 65, 9, 39, 40, 96, 75, 35, 72, 92, 51, 55, 42, 23, 41, 37, 58, 49, 66, 36, 11, 69, 103, 27, 84, 76, 79, 67, 18, 88, 49, 44, 48, 68, 88, 22, 98, 63, 52, 56, 81, 44, 78, 103, 15, 9, 82, 80, 49, 23, 53, 40, 77, 53, 100, 91, 51, 90, 73, 105, 67, 9, 104, 102, 103, 54, 98, 54, 46, 37, 66, 64, 27, 47, 89, 68, 58, 52, 25, 59, 21, 67, 72, 11, 51, 83, 66, 35, 82, 35, 58, 42, 63, 65, 8, 8, 89, 52, 46, 83, 75, 12, 68, 88, 37, 83, 93, 66, 43, 94, 40, 58, 81, 54, 38, 52, 80, 69, 34, 64, 96, 73, 34, 56, 18, 105, 64, 21, 86, 84, 72, 80, 31, 56, 74, 82, 83, 86, 28, 26, 37, 44
              |77, 101, 42, 26, 65, 89, 35, 81, 50, 74, 63, 65, 62, 41, 54, 75, 47, 107, 71, 45, 67, 33, 48, 42, 41, 73, 66, 73, 63, 65, 51, 36, 45, 60, 49, 21, 86, 83, 19, 65, 70, 24, 27, 21, 16, 23, 55, 27, 102, 59, 82, 62, 48, 80, 48, 101, 64, 57, 86, 47, 94, 76, 80, 55, 64, 43, 54, 8, 49, 9, 88, 52, 85, 23, 33, 46, 31, 77, 50, 81, 18, 26, 86, 104, 94, 98, 76, 30, 38, 85, 86, 103, 29, 72, 80, 60, 86, 56, 33, 63, 69, 95, 77, 16, 61, 86, 35, 92, 8, 72, 88, 38, 84, 27, 57, 89, 60, 87, 14, 28, 54, 82, 33, 34, 46, 44, 75, 57, 32, 30, 79, 51, 68, 14, 49, 71, 62, 89, 83, 83, 65, 48, 30, 58, 78, 92, 72, 33, 38, 74, 23, 62, 112, 40, 90, 90, 7, 85, 60, 41, 91, 60, 86, 3, 82, 80, 72, 13, 49, 44, 68, 94, 69, 70, 53, 54, 60, 71, 101, 56, 9, 94, 28, 42, 52, 42, 81, 19, 52, 55, 53, 40, 62, 84, 6, 77, 47, 43, 45, 59, 72, 31, 86, 103, 79, 26, 55, 76, 65, 69, 77, 58, 31, 49, 66, 16, 62, 9, 59, 107, 10, 20, 31, 91, 8, 88, 59, 73, 86, 50, 76, 82, 48, 75, 53, 48, 82, 48, 103, 32, 70, 110, 50, 72, 41, 76, 56, 77, 80, 92, 46, 37, 105, 98, 92, 85, 55, 50, 86, 91, 32, 74, 76, 35, 42, 69, 67, 9, 96, 41, 45, 61, 71, 57, 66, 52, 65, 44, 12, 27, 97, 49, 100, 6, 91, 86, 13, 81, 81, 76, 73, 68, 25, 64, 25, 16, 71, 76, 70, 70
              |14, 12, 50, 98, 25, 31, 71, 9, 48, 44, 60, 29, 27, 78, 49, 53, 52, 17, 23, 68, 67, 59, 51, 58, 50, 28, 73, 52, 35, 45, 51, 89, 45, 69, 62, 74, 4, 15, 73, 50, 38, 69, 76, 75, 77, 69, 36, 97, 18, 58, 19, 79, 50, 48, 42, 26, 38, 43, 4, 63, 6, 74, 16, 51, 40, 57, 39, 97, 46, 83, 27, 78, 31, 85, 58, 71, 59, 28, 47, 75, 85, 84, 36, 20, 15, 11, 35, 76, 52, 11, 72, 15, 73, 74, 63, 53, 8, 60, 69, 58, 22, 24, 55, 94, 29, 20, 72, 12, 85, 63, 21, 61, 13, 65, 74, 37, 81, 25, 103, 83, 44, 50, 62, 69, 56, 73, 75, 33, 81, 83, 62, 72, 73, 78, 42, 65, 72, 13, 41, 66, 54, 58, 72, 65, 53, 21, 20, 64, 52, 64, 101, 54, 22, 77, 48, 70, 94, 25, 55, 58, 7, 29, 31, 87, 65, 25, 62, 83, 42, 46, 38, 17, 31, 27, 51, 38, 62, 32, 19, 58, 94, 21, 76, 70, 74, 60, 9, 78, 40, 35, 38, 60, 78, 21, 88, 54, 42, 47, 71, 33, 68, 92, 12, 18, 73, 72, 39, 14, 42, 35, 75, 47, 89, 81, 47, 81, 62, 95, 57, 19, 94, 91, 92, 46, 88, 46, 39, 34, 58, 53, 22, 47, 79, 58, 48, 42, 15, 48, 19, 58, 62, 21, 40, 73, 55, 32, 72, 25, 49, 35, 52, 57, 18, 9, 80, 43, 35, 72, 66, 4, 59, 78, 27, 72, 82, 56, 38, 85, 34, 49, 71, 43, 34, 46, 70, 63, 25, 54, 87, 63, 29, 45, 16, 95, 56, 20, 77, 75, 63, 77, 26, 46, 64, 71, 75, 76, 19, 21, 32, 33
              |59, 85, 39, 25, 50, 83, 4, 65, 25, 46, 71, 56, 49, 12, 56, 79, 49, 89, 61, 58, 77, 35, 50, 16, 25, 67, 79, 76, 40, 65, 53, 17, 31, 72, 18, 36, 69, 62, 15, 36, 43, 34, 45, 38, 34, 32, 37, 25, 81, 66, 60, 31, 49, 50, 38, 77, 39, 32, 69, 56, 78, 45, 69, 26, 38, 16, 33, 38, 47, 22, 64, 69, 59, 13, 20, 60, 25, 71, 49, 49, 16, 12, 82, 82, 73, 79, 50, 48, 27, 65, 55, 87, 2, 84, 49, 31, 67, 64, 4, 70, 57, 86, 81, 26, 48, 76, 3, 72, 34, 80, 78, 12, 64, 14, 72, 62, 30, 63, 40, 10, 52, 53, 12, 4, 19, 13, 44, 41, 53, 52, 48, 20, 37, 32, 31, 40, 30, 76, 81, 52, 35, 19, 1, 69, 82, 82, 60, 42, 27, 83, 30, 32, 93, 11, 61, 58, 38, 61, 65, 47, 76, 47, 60, 31, 51, 56, 41, 37, 43, 37, 66, 72, 45, 48, 57, 35, 69, 66, 88, 25, 40, 71, 46, 56, 67, 50, 65, 12, 46, 44, 36, 47, 32, 75, 26, 47, 34, 37, 14, 39, 40, 19, 74, 89, 48, 41, 34, 62, 38, 65, 89, 60, 17, 21, 68, 38, 31, 31, 29, 92, 28, 21, 19, 63, 25, 59, 56, 68, 55, 22, 67, 82, 19, 44, 27, 34, 61, 25, 81, 31, 39, 94, 33, 41, 18, 71, 24, 54, 50, 66, 21, 39, 90, 80, 61, 56, 39, 19, 55, 73, 32, 43, 52, 3, 15, 38, 64, 35, 70, 34, 14, 34, 67, 58, 35, 62, 53, 19, 39, 22, 72, 28, 79, 33, 61, 76, 27, 49, 50, 89, 65, 39, 25, 32, 42, 17, 57, 66, 65, 45
              |44, 65, 5, 57, 31, 50, 42, 45, 34, 57, 30, 26, 28, 52, 16, 39, 9, 72, 33, 21, 37, 6, 10, 36, 22, 34, 39, 36, 39, 26, 13, 57, 19, 33, 46, 21, 51, 53, 30, 52, 49, 16, 22, 21, 25, 17, 28, 57, 70, 26, 53, 67, 9, 64, 15, 72, 43, 38, 52, 18, 58, 74, 42, 43, 44, 36, 31, 46, 10, 37, 62, 34, 60, 46, 21, 24, 16, 38, 11, 78, 43, 47, 47, 72, 63, 64, 54, 22, 16, 52, 80, 67, 39, 44, 72, 49, 53, 24, 38, 29, 33, 56, 41, 50, 26, 47, 42, 60, 33, 40, 49, 34, 53, 27, 34, 67, 67, 60, 54, 47, 14, 67, 30, 39, 38, 51, 74, 26, 28, 29, 70, 55, 68, 26, 25, 66, 62, 50, 44, 76, 55, 42, 39, 29, 42, 53, 35, 10, 16, 42, 58, 52, 76, 50, 72, 82, 43, 58, 25, 8, 54, 26, 61, 36, 74, 53, 65, 30, 12, 10, 29, 63, 44, 43, 16, 28, 29, 32, 62, 50, 42, 64, 22, 21, 31, 11, 45, 37, 14, 20, 25, 9, 67, 45, 40, 64, 19, 9, 49, 31, 68, 56, 49, 65, 76, 18, 31, 40, 47, 30, 49, 20, 54, 60, 28, 28, 57, 47, 51, 69, 47, 49, 56, 72, 41, 70, 20, 33, 73, 39, 37, 44, 58, 65, 37, 20, 51, 32, 71, 10, 63, 72, 24, 71, 30, 37, 58, 50, 64, 68, 34, 3, 67, 63, 88, 66, 25, 54, 78, 56, 9, 75, 50, 42, 56, 59, 27, 33, 71, 10, 49, 43, 32, 18, 65, 23, 29, 33, 34, 19, 70, 29, 68, 46, 76, 47, 27, 78, 72, 49, 34, 52, 17, 64, 21, 32, 35, 38, 31, 47
              |2, 27, 37, 82, 11, 37, 55, 9, 33, 33, 55, 21, 14, 63, 41, 52, 42, 32, 18, 59, 62, 46, 41, 42, 35, 26, 68, 49, 20, 40, 42, 73, 31, 63, 48, 61, 12, 11, 58, 37, 26, 56, 64, 62, 64, 55, 21, 82, 28, 52, 13, 65, 40, 38, 28, 30, 24, 28, 11, 54, 21, 62, 18, 37, 26, 42, 24, 83, 35, 69, 24, 70, 25, 69, 43, 62, 45, 28, 37, 64, 70, 69, 40, 29, 20, 23, 25, 65, 37, 10, 62, 30, 58, 70, 53, 39, 11, 53, 54, 53, 13, 33, 54, 79, 16, 26, 57, 18, 71, 60, 27, 45, 11, 50, 67, 32, 67, 21, 89, 67, 35, 41, 47, 53, 41, 58, 63, 19, 70, 72, 51, 57, 60, 65, 27, 53, 58, 22, 43, 56, 41, 43, 57, 59, 53, 29, 14, 53, 37, 62, 86, 41, 37, 61, 42, 61, 80, 20, 49, 47, 19, 16, 26, 73, 55, 17, 50, 69, 31, 33, 34, 21, 17, 13, 43, 23, 56, 29, 32, 44, 80, 23, 64, 60, 66, 50, 9, 63, 29, 22, 23, 49, 64, 25, 73, 43, 28, 34, 56, 18, 56, 77, 19, 32, 61, 60, 23, 9, 29, 31, 72, 40, 74, 66, 43, 68, 49, 81, 43, 34, 79, 76, 77, 40, 74, 39, 32, 31, 49, 38, 21, 47, 64, 47, 33, 27, 9, 33, 28, 45, 50, 37, 25, 61, 40, 32, 57, 15, 39, 31, 37, 45, 33, 23, 70, 36, 21, 57, 57, 16, 45, 66, 17, 57, 67, 44, 34, 71, 33, 35, 56, 29, 32, 39, 57, 56, 15, 38, 74, 49, 30, 30, 26, 80, 48, 26, 63, 64, 53, 74, 23, 34, 50, 58, 63, 62, 10, 20, 29, 21
              |45, 69, 49, 51, 43, 79, 24, 54, 19, 20, 80, 54, 44, 25, 64, 85, 59, 72, 57, 73, 88, 50, 60, 18, 30, 65, 91, 81, 25, 70, 62, 37, 34, 85, 10, 58, 56, 45, 40, 10, 22, 54, 66, 60, 57, 52, 31, 50, 61, 76, 41, 20, 58, 23, 42, 54, 21, 19, 55, 70, 65, 22, 61, 10, 19, 17, 26, 66, 54, 50, 41, 86, 36, 41, 34, 76, 40, 68, 57, 26, 44, 39, 81, 62, 54, 62, 27, 68, 36, 49, 29, 73, 30, 96, 21, 6, 51, 75, 26, 79, 51, 78, 87, 54, 44, 69, 25, 53, 60, 89, 71, 22, 47, 34, 86, 37, 22, 42, 69, 36, 58, 25, 28, 25, 15, 19, 22, 36, 74, 74, 20, 14, 17, 57, 30, 14, 13, 67, 81, 25, 7, 12, 29, 81, 87, 74, 54, 59, 36, 91, 57, 5, 76, 24, 33, 31, 66, 40, 74, 60, 64, 43, 36, 58, 24, 36, 14, 62, 48, 44, 68, 52, 28, 32, 65, 30, 80, 66, 77, 3, 67, 50, 67, 72, 83, 64, 54, 40, 50, 43, 34, 61, 19, 68, 54, 19, 36, 45, 17, 31, 16, 43, 64, 77, 24, 61, 27, 53, 16, 66, 100, 66, 40, 24, 73, 62, 5, 60, 2, 78, 57, 48, 43, 35, 53, 32, 60, 68, 27, 13, 62, 84, 22, 16, 16, 35, 44, 21, 61, 45, 12, 80, 31, 19, 23, 70, 13, 35, 22, 41, 18, 53, 77, 64, 36, 29, 35, 15, 28, 57, 47, 23, 33, 25, 28, 10, 66, 61, 45, 42, 17, 16, 67, 64, 13, 75, 49, 19, 65, 40, 49, 24, 60, 61, 33, 69, 52, 26, 22, 101, 62, 14, 44, 13, 64, 43, 49, 61, 65, 26
              |29, 16, 68, 110, 42, 49, 81, 28, 59, 46, 80, 48, 45, 87, 69, 73, 71, 11, 43, 88, 87, 76, 70, 69, 65, 48, 93, 71, 45, 65, 71, 98, 61, 89, 70, 91, 23, 22, 87, 55, 43, 86, 95, 93, 94, 86, 50, 109, 4, 78, 24, 83, 69, 47, 59, 13, 46, 52, 21, 83, 20, 75, 36, 59, 47, 68, 52, 113, 65, 98, 24, 98, 29, 97, 73, 91, 75, 48, 66, 74, 98, 96, 54, 3, 11, 9, 38, 95, 67, 21, 69, 19, 85, 93, 62, 59, 19, 80, 81, 78, 41, 39, 74, 108, 46, 39, 83, 13, 101, 83, 39, 72, 21, 79, 94, 32, 86, 23, 119, 94, 64, 48, 75, 80, 66, 81, 76, 49, 100, 102, 61, 78, 76, 95, 56, 66, 76, 32, 59, 64, 58, 67, 84, 85, 73, 37, 39, 83, 67, 84, 114, 59, 13, 86, 43, 66, 111, 25, 75, 77, 25, 47, 29, 103, 63, 29, 63, 100, 61, 64, 58, 12, 39, 36, 71, 52, 82, 52, 30, 65, 111, 15, 94, 89, 94, 79, 28, 92, 59, 52, 52, 79, 82, 40, 103, 53, 58, 65, 79, 47, 69, 103, 31, 27, 72, 90, 51, 33, 49, 55, 94, 67, 100, 88, 67, 98, 67, 110, 63, 23, 108, 104, 103, 40, 103, 41, 59, 53, 54, 62, 42, 65, 86, 59, 57, 57, 24, 59, 3, 75, 64, 22, 55, 74, 67, 52, 77, 31, 48, 28, 63, 75, 25, 13, 76, 40, 51, 79, 63, 17, 76, 79, 32, 83, 91, 59, 58, 102, 25, 66, 79, 51, 54, 66, 73, 83, 44, 65, 104, 79, 19, 57, 5, 110, 50, 39, 93, 74, 62, 97, 46, 50, 80, 75, 93, 91, 38, 41, 52, 39
              |6, 25, 45, 86, 19, 42, 58, 14, 35, 29, 63, 29, 22, 65, 50, 60, 50, 28, 26, 67, 71, 53, 49, 45, 40, 34, 76, 57, 21, 48, 50, 75, 36, 71, 48, 68, 13, 3, 63, 35, 23, 62, 72, 69, 70, 62, 26, 85, 21, 60, 6, 64, 48, 34, 35, 22, 23, 29, 11, 62, 21, 59, 24, 37, 25, 44, 28, 88, 43, 74, 16, 79, 18, 73, 48, 70, 51, 35, 45, 60, 74, 72, 46, 23, 13, 19, 20, 72, 43, 4, 57, 29, 61, 78, 48, 38, 7, 61, 57, 61, 21, 37, 62, 84, 24, 31, 59, 11, 77, 68, 32, 48, 4, 55, 76, 25, 66, 13, 94, 70, 43, 35, 51, 56, 43, 59, 60, 25, 78, 79, 47, 57, 58, 71, 32, 50, 57, 26, 50, 52, 39, 44, 60, 67, 60, 34, 21, 60, 43, 70, 90, 40, 33, 63, 35, 56, 86, 12, 57, 55, 21, 24, 18, 78, 51, 11, 47, 76, 38, 40, 42, 14, 16, 13, 52, 27, 65, 37, 34, 44, 86, 15, 71, 68, 75, 58, 14, 67, 37, 29, 28, 57, 63, 31, 78, 39, 34, 41, 57, 22, 53, 79, 23, 33, 58, 67, 27, 16, 28, 39, 80, 49, 77, 66, 51, 75, 48, 86, 42, 34, 84, 80, 79, 33, 79, 32, 40, 39, 43, 39, 28, 55, 65, 43, 34, 33, 1, 35, 22, 51, 47, 35, 31, 58, 43, 39, 57, 10, 34, 24, 39, 52, 33, 20, 65, 30, 26, 58, 52, 13, 52, 63, 12, 59, 69, 41, 42, 77, 25, 42, 57, 29, 39, 47, 55, 64, 23, 41, 80, 54, 22, 33, 19, 86, 42, 31, 69, 60, 49, 82, 31, 31, 56, 56, 70, 66, 18, 27, 37, 18
              |75, 99, 38, 35, 62, 84, 40, 78, 51, 76, 55, 61, 60, 47, 48, 68, 41, 105, 67, 37, 59, 29, 43, 45, 41, 69, 58, 66, 63, 59, 45, 44, 43, 52, 53, 14, 83, 82, 22, 68, 71, 19, 19, 14, 10, 18, 54, 35, 101, 52, 82, 68, 42, 82, 45, 100, 65, 58, 84, 39, 91, 81, 76, 57, 65, 46, 54, 12, 45, 15, 89, 43, 85, 30, 33, 38, 29, 73, 45, 86, 25, 33, 81, 102, 93, 96, 77, 22, 37, 83, 90, 100, 34, 64, 84, 63, 85, 49, 37, 56, 66, 91, 70, 24, 58, 81, 40, 91, 3, 65, 84, 41, 83, 29, 49, 90, 66, 87, 20, 35, 49, 85, 35, 38, 49, 50, 80, 55, 24, 22, 83, 57, 73, 9, 49, 76, 67, 85, 77, 87, 68, 51, 35, 50, 71, 88, 69, 26, 37, 67, 31, 65, 110, 46, 92, 94, 8, 85, 53, 35, 87, 58, 86, 6, 86, 80, 76, 5, 45, 41, 63, 93, 69, 70, 47, 53, 53, 66, 97, 60, 7, 93, 20, 34, 44, 36, 78, 25, 48, 52, 51, 34, 68, 80, 14, 80, 46, 40, 50, 58, 76, 39, 83, 99, 84, 19, 54, 74, 66, 64, 69, 52, 39, 56, 60, 8, 66, 17, 62, 104, 19, 28, 39, 93, 16, 90, 54, 67, 89, 52, 72, 75, 55, 79, 54, 47, 81, 49, 102, 29, 74, 107, 49, 77, 42, 71, 61, 77, 82, 93, 48, 32, 101, 95, 97, 86, 53, 56, 90, 89, 29, 79, 76, 40, 48, 72, 61, 2, 97, 38, 50, 62, 66, 51, 71, 45, 62, 46, 4, 26, 97, 49, 99, 14, 94, 81, 11, 86, 85, 68, 69, 70, 24, 69, 17, 20, 68, 72, 66, 71
              |65, 85, 76, 67, 67, 102, 47, 74, 46, 33, 108, 79, 68, 42, 91, 111, 87, 85, 81, 101, 115, 78, 87, 45, 58, 89, 119, 108, 48, 97, 90, 51, 62, 112, 35, 85, 75, 62, 65, 30, 40, 81, 93, 87, 83, 79, 57, 66, 72, 103, 57, 22, 86, 29, 69, 63, 43, 44, 73, 98, 83, 6, 83, 37, 42, 45, 52, 88, 81, 73, 52, 113, 47, 60, 61, 104, 68, 92, 84, 2, 65, 58, 104, 73, 67, 76, 42, 96, 64, 66, 8, 89, 53, 123, 14, 31, 69, 103, 50, 106, 75, 99, 113, 73, 69, 91, 48, 68, 84, 116, 93, 48, 64, 60, 114, 43, 25, 54, 89, 55, 85, 28, 55, 49, 42, 38, 7, 62, 101, 101, 15, 31, 14, 82, 57, 14, 21, 88, 106, 11, 27, 39, 52, 108, 113, 95, 77, 86, 64, 118, 74, 28, 88, 42, 33, 13, 89, 53, 101, 88, 83, 69, 47, 82, 12, 51, 16, 87, 75, 71, 94, 65, 49, 53, 93, 56, 108, 91, 96, 31, 91, 61, 94, 100, 111, 91, 74, 63, 77, 70, 60, 89, 21, 91, 77, 23, 63, 72, 37, 56, 12, 58, 85, 95, 4, 88, 53, 75, 38, 91, 127, 93, 56, 35, 100, 88, 23, 81, 29, 94, 78, 67, 58, 36, 75, 35, 86, 93, 22, 41, 86, 110, 35, 19, 43, 62, 62, 48, 72, 73, 17, 95, 58, 10, 51, 95, 27, 52, 28, 48, 46, 80, 94, 79, 10, 35, 61, 32, 13, 74, 74, 9, 50, 48, 43, 23, 92, 86, 51, 70, 37, 40, 93, 91, 16, 103, 73, 47, 90, 67, 57, 52, 72, 83, 27, 91, 78, 2, 14, 128, 86, 33, 71, 19, 90, 67, 73, 84, 90, 45
              |5, 31, 34, 79, 8, 37, 52, 11, 30, 33, 53, 19, 11, 60, 39, 51, 39, 35, 17, 56, 60, 42, 38, 39, 32, 25, 66, 48, 18, 38, 39, 70, 27, 61, 45, 57, 15, 14, 54, 36, 25, 52, 61, 59, 60, 52, 18, 78, 31, 50, 16, 63, 37, 38, 25, 33, 22, 25, 15, 51, 24, 61, 19, 34, 24, 39, 21, 79, 32, 65, 26, 68, 26, 66, 40, 59, 41, 28, 34, 63, 66, 66, 40, 33, 24, 27, 25, 61, 34, 14, 61, 33, 54, 68, 52, 37, 15, 51, 51, 51, 11, 35, 53, 76, 13, 27, 54, 21, 67, 58, 28, 42, 14, 47, 65, 33, 65, 23, 85, 64, 32, 41, 44, 50, 38, 55, 62, 15, 67, 68, 51, 55, 59, 61, 23, 52, 56, 24, 42, 56, 40, 40, 54, 56, 52, 31, 13, 49, 34, 60, 82, 39, 40, 59, 42, 61, 77, 22, 47, 44, 22, 13, 27, 69, 55, 18, 49, 66, 27, 30, 33, 24, 16, 12, 41, 19, 54, 28, 35, 42, 77, 26, 61, 57, 64, 47, 11, 60, 26, 18, 19, 46, 62, 26, 70, 42, 24, 31, 53, 15, 55, 73, 21, 35, 60, 56, 20, 10, 27, 30, 70, 38, 71, 63, 41, 64, 47, 77, 41, 38, 76, 73, 73, 41, 70, 40, 29, 30, 49, 35, 21, 47, 61, 46, 30, 24, 12, 30, 32, 41, 49, 40, 22, 59, 36, 31, 55, 16, 39, 33, 34, 41, 36, 26, 70, 36, 17, 55, 56, 19, 42, 64, 17, 54, 65, 42, 32, 68, 35, 32, 53, 27, 30, 36, 55, 53, 13, 35, 70, 45, 32, 26, 29, 77, 49, 27, 59, 63, 52, 72, 23, 32, 46, 56, 59, 58, 8, 20, 28, 20
              |56, 75, 71, 69, 59, 93, 46, 65, 40, 23, 101, 71, 60, 43, 85, 103, 81, 75, 72, 96, 109, 73, 81, 42, 53, 81, 113, 100, 40, 89, 84, 54, 56, 106, 33, 81, 66, 52, 63, 23, 31, 77, 90, 84, 81, 76, 50, 68, 62, 97, 48, 26, 79, 19, 62, 53, 35, 37, 63, 92, 73, 11, 74, 32, 34, 41, 45, 88, 75, 72, 42, 108, 37, 61, 57, 99, 64, 84, 78, 8, 65, 59, 96, 63, 57, 66, 32, 92, 59, 56, 6, 79, 52, 117, 4, 25, 59, 96, 49, 100, 66, 90, 106, 74, 62, 82, 47, 58, 83, 109, 84, 45, 54, 58, 108, 33, 30, 44, 90, 56, 78, 18, 52, 48, 38, 38, 12, 55, 98, 98, 5, 31, 17, 80, 50, 10, 22, 78, 98, 2, 20, 35, 51, 102, 105, 86, 68, 81, 59, 111, 76, 22, 78, 43, 23, 8, 89, 43, 95, 82, 74, 61, 37, 81, 2, 42, 10, 85, 69, 65, 86, 55, 40, 44, 86, 49, 101, 83, 86, 27, 90, 51, 90, 95, 105, 86, 65, 62, 70, 62, 53, 83, 25, 82, 76, 14, 57, 66, 37, 48, 10, 60, 75, 85, 7, 85, 46, 66, 30, 83, 120, 86, 58, 38, 92, 86, 19, 81, 24, 84, 78, 68, 60, 27, 75, 25, 79, 85, 12, 36, 77, 102, 37, 10, 37, 56, 52, 42, 62, 68, 12, 85, 52, 13, 47, 86, 27, 42, 18, 38, 41, 75, 84, 69, 14, 25, 54, 32, 5, 65, 70, 16, 41, 47, 45, 16, 84, 84, 41, 64, 37, 33, 85, 84, 16, 97, 65, 42, 88, 64, 47, 46, 62, 83, 18, 82, 75, 8, 4, 122, 78, 24, 67, 20, 87, 66, 64, 76, 82, 36
              |26, 51, 19, 59, 15, 49, 34, 31, 15, 34, 48, 22, 14, 43, 32, 51, 28, 56, 26, 44, 56, 25, 28, 22, 11, 33, 60, 48, 16, 37, 31, 52, 7, 54, 31, 39, 35, 32, 34, 30, 26, 34, 44, 41, 41, 33, 4, 59, 51, 44, 32, 51, 27, 40, 9, 50, 20, 16, 35, 40, 44, 55, 34, 23, 21, 22, 8, 59, 22, 45, 39, 57, 37, 46, 19, 48, 21, 37, 25, 58, 46, 46, 49, 52, 43, 47, 31, 45, 13, 33, 59, 53, 35, 64, 50, 29, 35, 43, 32, 47, 22, 51, 54, 55, 13, 41, 35, 41, 47, 56, 43, 24, 33, 26, 56, 43, 52, 38, 65, 45, 25, 43, 24, 31, 22, 39, 55, 6, 51, 52, 48, 41, 50, 42, 4, 46, 45, 41, 49, 54, 33, 25, 35, 49, 54, 47, 25, 33, 13, 58, 62, 31, 61, 41, 48, 60, 57, 36, 42, 31, 41, 12, 38, 49, 52, 30, 44, 46, 16, 14, 35, 43, 20, 20, 33, 4, 48, 34, 53, 31, 57, 43, 44, 44, 54, 35, 31, 39, 17, 10, 1, 33, 51, 40, 49, 42, 5, 15, 37, 8, 48, 54, 38, 54, 55, 39, 7, 27, 24, 33, 67, 33, 52, 48, 40, 46, 38, 57, 31, 57, 55, 52, 54, 49, 50, 46, 26, 36, 50, 21, 32, 52, 46, 43, 17, 4, 30, 13, 51, 22, 43, 60, 2, 52, 17, 38, 42, 27, 41, 45, 17, 25, 56, 47, 67, 42, 4, 40, 55, 40, 23, 56, 27, 35, 47, 37, 33, 48, 48, 14, 37, 21, 35, 31, 47, 44, 18, 18, 51, 25, 48, 9, 49, 56, 53, 41, 39, 58, 50, 69, 31, 29, 26, 46, 42, 37, 22, 31, 33, 23
              |40, 45, 36, 94, 33, 15, 74, 33, 57, 69, 24, 21, 32, 84, 22, 15, 29, 52, 21, 38, 29, 43, 28, 64, 50, 12, 35, 13, 52, 12, 26, 91, 44, 33, 73, 56, 37, 48, 66, 70, 61, 52, 53, 56, 61, 53, 44, 94, 57, 24, 51, 94, 28, 75, 36, 64, 57, 56, 39, 34, 38, 96, 23, 65, 59, 64, 49, 82, 28, 74, 62, 45, 63, 82, 54, 40, 51, 11, 26, 98, 80, 83, 11, 59, 53, 49, 62, 52, 47, 45, 98, 44, 73, 35, 88, 70, 44, 27, 71, 22, 26, 25, 16, 87, 31, 20, 75, 50, 69, 24, 21, 64, 47, 61, 39, 70, 95, 59, 90, 82, 23, 78, 62, 71, 65, 81, 96, 39, 55, 57, 87, 83, 92, 63, 46, 86, 88, 27, 7, 92, 74, 68, 73, 30, 15, 24, 25, 44, 47, 25, 95, 72, 56, 82, 80, 97, 78, 58, 21, 35, 34, 32, 64, 73, 91, 55, 84, 65, 31, 37, 8, 55, 52, 49, 24, 46, 27, 9, 35, 73, 77, 59, 53, 41, 41, 35, 33, 73, 28, 32, 42, 37, 93, 19, 77, 79, 41, 37, 79, 44, 89, 92, 28, 38, 96, 51, 48, 29, 62, 9, 36, 18, 89, 90, 12, 62, 80, 84, 73, 44, 84, 86, 92, 79, 78, 77, 18, 7, 86, 63, 17, 9, 88, 82, 59, 42, 47, 56, 58, 46, 83, 48, 44, 93, 58, 7, 85, 53, 76, 69, 59, 40, 41, 46, 106, 74, 40, 83, 93, 42, 46, 98, 54, 75, 88, 77, 10, 68, 70, 40, 79, 60, 8, 19, 88, 31, 27, 60, 69, 55, 66, 52, 55, 82, 86, 20, 64, 98, 89, 39, 15, 68, 54, 88, 54, 69, 29, 19, 10, 56
              |41, 56, 17, 75, 29, 34, 57, 38, 45, 63, 18, 18, 26, 68, 3, 23, 9, 63, 23, 22, 26, 24, 8, 49, 35, 21, 30, 19, 44, 9, 6, 73, 30, 25, 59, 36, 43, 50, 47, 61, 54, 32, 34, 36, 41, 33, 33, 75, 64, 14, 52, 80, 8, 69, 22, 68, 49, 46, 45, 17, 49, 85, 31, 53, 50, 49, 38, 62, 9, 54, 62, 32, 61, 63, 36, 25, 32, 24, 7, 88, 60, 64, 31, 66, 58, 57, 58, 33, 30, 48, 89, 56, 55, 33, 80, 59, 48, 15, 54, 16, 26, 42, 25, 67, 24, 34, 58, 55, 49, 26, 36, 48, 49, 43, 29, 69, 81, 59, 70, 64, 5, 72, 45, 54, 51, 65, 85, 29, 37, 39, 78, 69, 80, 42, 34, 76, 75, 39, 27, 84, 64, 54, 55, 20, 25, 40, 27, 24, 30, 28, 75, 62, 67, 66, 76, 90, 58, 58, 11, 15, 44, 25, 62, 53, 83, 53, 74, 45, 15, 20, 13, 59, 47, 45, 5, 35, 18, 17, 50, 61, 57, 62, 33, 24, 28, 16, 38, 54, 13, 21, 30, 17, 80, 32, 57, 72, 27, 20, 64, 36, 78, 73, 38, 53, 86, 31, 37, 33, 54, 14, 37, 3, 71, 74, 11, 42, 68, 64, 62, 58, 64, 67, 73, 76, 59, 73, 7, 18, 80, 50, 26, 26, 72, 74, 47, 28, 48, 43, 65, 27, 73, 61, 32, 82, 43, 21, 71, 51, 70, 69, 46, 20, 55, 55, 98, 69, 30, 68, 86, 49, 26, 87, 51, 58, 71, 68, 11, 48, 71, 23, 64, 51, 16, 1, 77, 17, 24, 46, 49, 36, 68, 39, 62, 62, 82, 34, 44, 88, 81, 38, 22, 59, 34, 76, 34, 49, 29, 26, 17, 51
              |15, 25, 53, 91, 28, 49, 63, 21, 40, 28, 72, 38, 31, 69, 59, 68, 59, 26, 35, 76, 79, 61, 58, 50, 47, 42, 85, 66, 26, 57, 59, 80, 44, 80, 52, 76, 18, 6, 70, 36, 25, 71, 80, 78, 78, 70, 34, 91, 15, 69, 6, 65, 57, 31, 44, 13, 27, 34, 16, 71, 23, 58, 31, 41, 29, 49, 34, 96, 52, 81, 9, 88, 13, 79, 55, 79, 58, 43, 54, 58, 80, 78, 53, 16, 8, 16, 20, 81, 51, 9, 54, 29, 67, 87, 46, 40, 11, 70, 62, 70, 30, 42, 70, 90, 33, 37, 64, 8, 85, 77, 38, 54, 7, 62, 85, 19, 68, 6, 101, 76, 52, 32, 57, 62, 47, 63, 59, 33, 87, 88, 45, 60, 58, 79, 39, 49, 58, 31, 57, 49, 40, 48, 66, 76, 69, 39, 30, 69, 51, 78, 96, 41, 30, 67, 30, 52, 94, 7, 66, 64, 26, 33, 13, 86, 48, 10, 46, 84, 47, 49, 51, 6, 21, 18, 61, 34, 73, 46, 37, 47, 94, 6, 80, 77, 84, 67, 21, 74, 46, 38, 36, 66, 64, 37, 85, 37, 42, 50, 60, 30, 52, 84, 29, 35, 56, 76, 34, 25, 30, 48, 89, 57, 81, 69, 60, 83, 49, 93, 44, 34, 91, 86, 84, 28, 85, 28, 49, 47, 40, 44, 36, 62, 68, 42, 39, 41, 8, 41, 16, 59, 47, 35, 38, 58, 49, 47, 59, 12, 32, 16, 45, 61, 34, 19, 62, 25, 34, 60, 49, 15, 60, 62, 14, 64, 73, 41, 50, 85, 16, 50, 60, 32, 48, 56, 56, 73, 32, 47, 88, 62, 13, 40, 14, 93, 37, 37, 77, 58, 46, 91, 39, 32, 64, 57, 79, 73, 27, 35, 45, 21
              |47, 73, 34, 37, 39, 74, 9, 54, 14, 34, 67, 47, 39, 18, 51, 73, 45, 77, 51, 57, 74, 33, 46, 4, 16, 58, 76, 70, 28, 59, 49, 27, 22, 70, 10, 39, 58, 50, 21, 25, 31, 36, 48, 41, 38, 34, 26, 37, 69, 62, 48, 30, 44, 40, 30, 65, 27, 20, 57, 54, 67, 39, 58, 15, 26, 4, 22, 47, 41, 31, 52, 69, 47, 25, 16, 59, 23, 62, 44, 44, 27, 24, 74, 70, 61, 67, 38, 50, 21, 53, 48, 76, 13, 81, 41, 20, 55, 61, 9, 66, 47, 76, 76, 37, 38, 66, 11, 60, 40, 76, 68, 3, 52, 15, 70, 51, 30, 51, 51, 22, 46, 42, 9, 8, 7, 14, 39, 31, 56, 55, 40, 18, 32, 37, 21, 33, 26, 66, 73, 44, 25, 8, 12, 66, 76, 72, 50, 41, 21, 78, 42, 22, 82, 16, 50, 51, 47, 49, 61, 44, 65, 37, 48, 39, 43, 44, 33, 42, 36, 31, 59, 60, 33, 36, 52, 24, 66, 58, 77, 16, 48, 59, 48, 55, 67, 48, 54, 22, 39, 35, 26, 45, 30, 65, 36, 37, 25, 31, 13, 28, 34, 31, 63, 78, 42, 43, 23, 52, 26, 57, 86, 54, 28, 24, 62, 43, 23, 42, 19, 80, 39, 32, 31, 52, 35, 49, 49, 60, 46, 10, 57, 75, 22, 35, 15, 25, 49, 13, 69, 28, 31, 83, 23, 36, 8, 63, 21, 42, 39, 54, 9, 36, 79, 68, 55, 45, 28, 17, 47, 61, 30, 39, 40, 11, 22, 29, 57, 41, 58, 28, 13, 22, 59, 52, 30, 60, 43, 8, 46, 22, 60, 17, 67, 43, 51, 66, 33, 44, 42, 86, 56, 28, 25, 28, 45, 24, 47, 57, 57, 33
              |53, 66, 26, 80, 41, 39, 66, 49, 56, 75, 6, 30, 38, 77, 11, 17, 16, 73, 34, 16, 13, 30, 15, 59, 45, 29, 17, 15, 57, 12, 12, 81, 41, 12, 70, 38, 54, 62, 53, 73, 67, 35, 33, 37, 43, 37, 45, 80, 75, 1, 64, 91, 17, 82, 33, 80, 61, 58, 56, 12, 58, 97, 41, 65, 63, 60, 50, 63, 21, 58, 74, 22, 74, 69, 45, 17, 40, 31, 18, 100, 66, 71, 34, 77, 70, 68, 70, 30, 40, 60, 101, 65, 63, 21, 92, 71, 60, 4, 63, 5, 38, 48, 19, 71, 37, 41, 67, 66, 50, 16, 43, 58, 61, 51, 17, 81, 91, 71, 71, 71, 17, 85, 54, 63, 61, 75, 97, 42, 33, 35, 91, 79, 91, 45, 45, 88, 86, 48, 28, 96, 76, 65, 64, 8, 20, 47, 38, 26, 40, 18, 79, 74, 77, 75, 89, 102, 59, 70, 2, 18, 53, 37, 75, 55, 95, 66, 86, 46, 27, 31, 19, 71, 59, 57, 9, 47, 6, 25, 57, 72, 58, 74, 32, 19, 18, 16, 49, 60, 26, 34, 43, 19, 90, 40, 60, 84, 39, 30, 73, 48, 90, 80, 47, 61, 98, 32, 50, 44, 66, 22, 25, 10, 78, 84, 11, 43, 80, 67, 73, 66, 68, 72, 80, 88, 62, 86, 19, 25, 92, 61, 35, 25, 82, 86, 59, 40, 60, 54, 76, 34, 85, 70, 44, 93, 53, 28, 82, 63, 82, 81, 57, 26, 64, 65, 110, 82, 42, 78, 98, 60, 33, 98, 64, 67, 80, 80, 19, 50, 83, 33, 73, 63, 24, 12, 88, 8, 36, 56, 49, 43, 81, 50, 73, 65, 94, 41, 47, 100, 93, 26, 31, 72, 41, 87, 34, 55, 41, 36, 25, 63
              |79, 105, 55, 5, 70, 102, 23, 86, 46, 65, 83, 75, 68, 21, 71, 94, 64, 109, 80, 68, 89, 49, 65, 36, 44, 85, 89, 91, 60, 81, 68, 11, 50, 83, 36, 43, 90, 83, 25, 55, 63, 44, 52, 45, 39, 42, 57, 4, 101, 79, 81, 40, 64, 68, 57, 97, 59, 52, 89, 68, 99, 56, 88, 46, 58, 37, 54, 31, 64, 22, 84, 77, 79, 9, 38, 70, 40, 89, 65, 61, 12, 9, 100, 103, 93, 100, 70, 55, 45, 85, 67, 108, 20, 95, 64, 49, 88, 77, 24, 83, 77, 105, 96, 13, 68, 95, 22, 92, 34, 94, 97, 33, 85, 30, 81, 82, 37, 84, 29, 11, 68, 71, 31, 25, 39, 27, 55, 61, 58, 57, 63, 33, 48, 37, 51, 55, 43, 96, 98, 66, 53, 38, 21, 80, 97, 101, 80, 53, 45, 96, 12, 50, 114, 22, 79, 72, 33, 81, 79, 60, 96, 67, 80, 29, 66, 76, 56, 39, 60, 54, 83, 93, 66, 69, 71, 55, 82, 84, 108, 43, 35, 91, 53, 65, 77, 62, 86, 18, 64, 63, 56, 59, 41, 94, 22, 64, 53, 54, 29, 60, 54, 4, 93, 109, 60, 49, 55, 82, 58, 83, 100, 75, 6, 27, 83, 42, 47, 22, 47, 112, 19, 8, 4, 81, 20, 78, 73, 86, 72, 42, 86, 98, 27, 60, 47, 53, 82, 46, 102, 45, 54, 115, 53, 52, 38, 89, 37, 74, 68, 85, 42, 53, 111, 100, 72, 75, 59, 32, 69, 93, 46, 53, 73, 22, 19, 56, 81, 36, 90, 51, 29, 55, 85, 73, 48, 74, 73, 40, 39, 36, 92, 48, 100, 25, 78, 95, 33, 61, 65, 100, 84, 59, 38, 45, 49, 23, 77, 85, 83, 66
              |36, 59, 6, 56, 23, 49, 35, 39, 24, 46, 38, 23, 20, 46, 22, 45, 17, 65, 29, 32, 46, 12, 17, 27, 13, 33, 49, 41, 29, 31, 20, 52, 9, 42, 37, 27, 44, 44, 28, 42, 39, 22, 31, 28, 30, 21, 17, 55, 61, 34, 44, 58, 16, 53, 6, 62, 33, 27, 44, 28, 52, 64, 38, 33, 33, 27, 20, 50, 13, 37, 52, 44, 50, 43, 15, 35, 13, 37, 15, 68, 41, 44, 48, 63, 54, 57, 44, 32, 8, 44, 70, 61, 34, 53, 61, 39, 45, 33, 32, 37, 27, 54, 47, 50, 19, 44, 36, 52, 37, 47, 46, 26, 44, 22, 44, 56, 59, 50, 57, 43, 17, 56, 23, 32, 29, 43, 64, 16, 38, 39, 60, 47, 58, 31, 14, 56, 53, 46, 46, 65, 44, 32, 34, 38, 47, 50, 30, 20, 8, 50, 57, 42, 70, 44, 61, 71, 47, 48, 32, 18, 48, 18, 51, 40, 64, 43, 55, 35, 8, 2, 31, 54, 33, 33, 23, 17, 38, 32, 58, 40, 47, 55, 31, 31, 41, 22, 39, 35, 11, 13, 14, 20, 58, 43, 41, 54, 8, 2, 41, 21, 58, 53, 44, 60, 66, 26, 20, 34, 36, 30, 57, 25, 50, 52, 33, 34, 47, 49, 41, 64, 48, 48, 53, 62, 42, 59, 21, 34, 63, 29, 34, 47, 50, 55, 27, 9, 42, 22, 62, 11, 53, 67, 14, 61, 21, 37, 49, 40, 53, 58, 24, 12, 62, 56, 78, 55, 15, 46, 67, 49, 11, 65, 40, 36, 49, 49, 29, 37, 61, 1, 41, 33, 32, 23, 55, 33, 23, 24, 40, 17, 60, 19, 60, 48, 66, 44, 30, 68, 62, 58, 32, 42, 17, 54, 29, 31, 28, 34, 31, 36
              |73, 97, 38, 30, 61, 84, 35, 77, 48, 72, 58, 60, 58, 42, 49, 70, 42, 103, 67, 40, 62, 29, 43, 41, 38, 69, 61, 67, 60, 60, 46, 39, 41, 55, 49, 16, 82, 80, 18, 64, 67, 19, 22, 16, 10, 18, 51, 31, 98, 54, 79, 63, 43, 78, 44, 98, 62, 54, 82, 41, 90, 76, 76, 53, 61, 42, 51, 11, 45, 10, 86, 47, 82, 25, 30, 41, 27, 73, 45, 81, 21, 28, 81, 100, 91, 95, 74, 25, 34, 81, 86, 99, 29, 67, 80, 59, 83, 51, 33, 58, 65, 91, 72, 20, 57, 81, 35, 89, 3, 67, 83, 37, 81, 25, 52, 87, 61, 85, 19, 30, 49, 81, 31, 34, 45, 45, 76, 53, 28, 26, 79, 52, 68, 9, 46, 71, 62, 84, 78, 83, 64, 47, 30, 53, 73, 87, 68, 28, 34, 69, 27, 61, 108, 41, 88, 89, 9, 82, 55, 36, 86, 56, 83, 2, 82, 77, 72, 8, 45, 40, 64, 91, 66, 67, 48, 51, 55, 67, 96, 55, 9, 91, 23, 37, 47, 37, 77, 20, 48, 51, 49, 35, 63, 80, 9, 76, 44, 39, 45, 55, 72, 34, 82, 98, 80, 21, 52, 72, 63, 64, 72, 53, 34, 51, 61, 11, 62, 14, 58, 103, 15, 23, 34, 90, 11, 87, 54, 68, 85, 48, 72, 77, 50, 74, 51, 44, 78, 46, 99, 28, 70, 105, 47, 72, 38, 71, 56, 74, 78, 90, 44, 32, 100, 94, 92, 83, 51, 51, 86, 87, 28, 75, 73, 35, 43, 68, 62, 4, 94, 37, 45, 59, 66, 52, 66, 47, 61, 42, 8, 23, 95, 46, 97, 11, 90, 81, 9, 81, 81, 71, 68, 66, 22, 64, 20, 15, 67, 72, 66, 68
              |63, 74, 36, 86, 51, 45, 74, 59, 66, 85, 6, 40, 49, 85, 21, 19, 25, 81, 44, 17, 5, 37, 25, 68, 54, 38, 7, 18, 67, 21, 22, 88, 50, 4, 79, 42, 63, 72, 60, 83, 77, 41, 35, 41, 47, 43, 56, 86, 84, 9, 74, 100, 26, 92, 43, 90, 72, 68, 66, 16, 67, 106, 50, 74, 73, 69, 60, 66, 30, 63, 84, 16, 84, 76, 54, 16, 48, 39, 28, 110, 72, 77, 39, 86, 79, 77, 81, 32, 49, 70, 111, 73, 71, 12, 102, 81, 69, 9, 71, 8, 48, 55, 19, 76, 47, 49, 75, 76, 54, 11, 51, 67, 71, 59, 9, 91, 100, 82, 74, 78, 27, 95, 62, 71, 71, 83, 106, 52, 33, 35, 101, 88, 100, 49, 55, 98, 95, 56, 33, 106, 86, 74, 71, 4, 21, 54, 48, 32, 49, 13, 84, 83, 85, 83, 99, 112, 62, 80, 12, 25, 62, 47, 85, 59, 105, 76, 96, 49, 37, 40, 28, 81, 69, 68, 19, 57, 4, 34, 65, 82, 60, 83, 34, 20, 13, 22, 59, 67, 36, 44, 53, 26, 99, 48, 65, 94, 49, 40, 82, 58, 100, 86, 56, 68, 107, 36, 60, 54, 76, 31, 16, 21, 85, 92, 19, 46, 89, 71, 83, 74, 72, 78, 86, 98, 67, 96, 29, 33, 102, 71, 44, 28, 90, 96, 69, 50, 70, 64, 85, 42, 95, 77, 54, 103, 62, 35, 91, 73, 93, 92, 66, 34, 71, 74, 120, 92, 52, 87, 108, 69, 41, 107, 74, 75, 88, 90, 28, 53, 93, 42, 82, 73, 32, 22, 97, 10, 46, 66, 52, 51, 91, 60, 82, 68, 104, 49, 52, 110, 103, 17, 40, 82, 48, 96, 37, 61, 51, 45, 34, 74
              |39, 59, 6, 64, 26, 43, 46, 39, 35, 56, 27, 20, 23, 57, 11, 34, 6, 65, 26, 23, 34, 13, 6, 38, 24, 27, 37, 30, 38, 20, 9, 62, 20, 31, 49, 28, 45, 48, 36, 53, 48, 23, 28, 28, 32, 24, 26, 64, 64, 22, 49, 70, 4, 63, 13, 67, 42, 38, 46, 18, 51, 76, 35, 44, 43, 39, 30, 53, 3, 44, 58, 35, 57, 52, 25, 26, 21, 31, 4, 79, 50, 53, 40, 66, 58, 59, 52, 28, 19, 47, 81, 60, 44, 42, 72, 50, 48, 21, 43, 26, 27, 49, 36, 57, 21, 40, 47, 55, 40, 36, 42, 38, 48, 32, 34, 64, 70, 56, 61, 53, 7, 66, 34, 43, 40, 54, 76, 23, 33, 35, 70, 58, 70, 34, 25, 67, 65, 44, 37, 76, 55, 44, 44, 27, 36, 46, 29, 17, 19, 38, 65, 53, 70, 55, 70, 82, 50, 54, 21, 10, 47, 21, 58, 44, 75, 50, 66, 37, 7, 10, 22, 58, 41, 40, 12, 27, 26, 25, 55, 51, 49, 60, 28, 23, 31, 13, 39, 43, 8, 16, 23, 12, 69, 38, 47, 64, 18, 9, 53, 29, 69, 62, 42, 58, 77, 24, 30, 34, 46, 22, 46, 14, 60, 64, 22, 35, 59, 55, 52, 63, 54, 56, 62, 70, 48, 68, 13, 26, 73, 41, 30, 37, 62, 65, 38, 19, 46, 33, 65, 16, 64, 66, 24, 72, 33, 30, 61, 47, 63, 65, 36, 10, 60, 57, 89, 64, 23, 58, 78, 50, 16, 77, 47, 47, 60, 60, 20, 40, 68, 12, 53, 43, 25, 12, 67, 22, 23, 36, 41, 25, 66, 30, 62, 53, 75, 40, 34, 79, 73, 47, 27, 52, 24, 66, 27, 39, 29, 31, 24, 45
              |37, 62, 13, 50, 25, 56, 28, 42, 18, 42, 45, 28, 23, 38, 30, 52, 24, 67, 34, 37, 53, 15, 24, 20, 6, 39, 55, 49, 26, 38, 27, 45, 5, 49, 30, 27, 47, 44, 23, 37, 35, 22, 33, 29, 29, 21, 16, 49, 63, 41, 44, 51, 23, 49, 10, 62, 29, 23, 47, 34, 55, 58, 43, 27, 29, 20, 17, 47, 20, 33, 51, 50, 48, 37, 9, 40, 9, 43, 22, 62, 36, 37, 54, 64, 55, 59, 41, 35, 1, 45, 64, 64, 27, 60, 56, 33, 47, 39, 25, 44, 31, 59, 54, 45, 22, 49, 29, 53, 35, 55, 51, 19, 45, 16, 50, 54, 51, 49, 53, 37, 25, 52, 16, 25, 22, 36, 58, 17, 41, 41, 54, 39, 52, 30, 11, 50, 46, 51, 53, 60, 39, 26, 27, 45, 55, 55, 34, 23, 1, 57, 52, 36, 72, 36, 58, 66, 45, 47, 39, 24, 52, 21, 49, 37, 58, 42, 49, 34, 15, 9, 38, 55, 31, 32, 30, 15, 45, 38, 63, 33, 45, 55, 33, 36, 47, 28, 42, 29, 18, 17, 13, 25, 51, 48, 37, 49, 8, 9, 34, 20, 52, 46, 48, 64, 60, 28, 17, 38, 32, 37, 64, 33, 44, 45, 40, 34, 41, 45, 35, 68, 44, 42, 46, 58, 38, 56, 28, 40, 58, 23, 40, 54, 43, 49, 21, 9, 42, 16, 64, 11, 47, 71, 11, 54, 14, 43, 42, 39, 49, 56, 18, 17, 66, 58, 72, 51, 15, 39, 62, 51, 12, 59, 39, 29, 42, 43, 36, 36, 60, 7, 34, 28, 39, 30, 49, 39, 27, 17, 39, 13, 60, 14, 61, 45, 61, 49, 27, 62, 56, 65, 38, 37, 14, 48, 31, 26, 32, 39, 37, 34
              |13, 34, 45, 80, 22, 51, 52, 22, 29, 20, 68, 34, 24, 58, 53, 66, 52, 36, 32, 69, 75, 52, 51, 39, 37, 40, 80, 63, 15, 53, 53, 69, 34, 75, 41, 66, 22, 9, 59, 26, 14, 61, 71, 68, 68, 60, 24, 79, 26, 64, 6, 55, 50, 25, 35, 23, 16, 23, 20, 64, 30, 50, 32, 30, 17, 38, 23, 85, 45, 70, 12, 81, 11, 67, 45, 72, 48, 43, 47, 51, 68, 66, 54, 28, 19, 26, 11, 72, 41, 13, 48, 37, 55, 83, 39, 30, 16, 65, 51, 66, 26, 46, 68, 79, 26, 39, 53, 18, 74, 73, 41, 43, 11, 51, 79, 18, 58, 10, 90, 64, 46, 27, 46, 50, 36, 52, 51, 24, 78, 79, 38, 49, 49, 69, 28, 41, 48, 35, 57, 43, 30, 37, 54, 71, 67, 42, 28, 60, 41, 75, 84, 31, 40, 56, 28, 47, 83, 8, 61, 56, 30, 26, 12, 75, 42, 3, 38, 74, 39, 40, 48, 18, 9, 7, 55, 24, 69, 43, 43, 36, 84, 17, 71, 70, 77, 60, 22, 62, 39, 30, 26, 58, 54, 39, 74, 30, 32, 41, 49, 19, 44, 73, 32, 42, 49, 66, 23, 24, 19, 45, 85, 52, 70, 59, 56, 73, 39, 82, 34, 42, 80, 75, 73, 26, 74, 25, 44, 45, 35, 33, 35, 62, 57, 34, 28, 31, 9, 30, 27, 50, 38, 44, 28, 49, 38, 46, 49, 1, 26, 19, 33, 52, 42, 28, 57, 21, 25, 50, 43, 22, 51, 54, 3, 53, 62, 32, 47, 75, 21, 41, 49, 21, 45, 51, 46, 67, 27, 35, 78, 51, 20, 29, 25, 82, 34, 39, 66, 51, 40, 87, 37, 22, 53, 48, 69, 62, 23, 34, 43, 10
              |40, 58, 11, 69, 27, 39, 51, 39, 40, 59, 22, 19, 24, 62, 6, 28, 4, 65, 25, 21, 30, 18, 3, 43, 29, 24, 33, 25, 41, 15, 4, 67, 24, 27, 54, 31, 44, 49, 41, 57, 51, 26, 30, 31, 36, 28, 29, 69, 64, 18, 50, 75, 3, 66, 17, 68, 45, 42, 46, 16, 50, 80, 34, 48, 47, 44, 34, 57, 4, 48, 60, 33, 59, 57, 31, 24, 26, 28, 1, 84, 54, 58, 36, 66, 58, 58, 55, 29, 24, 48, 85, 59, 49, 37, 76, 54, 48, 17, 48, 21, 26, 46, 31, 61, 22, 37, 52, 55, 44, 31, 39, 43, 49, 37, 30, 66, 75, 58, 64, 58, 4, 69, 39, 48, 45, 59, 80, 26, 34, 36, 74, 63, 75, 37, 29, 72, 70, 42, 33, 80, 59, 49, 49, 23, 31, 43, 28, 19, 24, 33, 69, 57, 69, 60, 73, 86, 53, 56, 16, 11, 46, 23, 60, 47, 79, 52, 70, 40, 11, 15, 18, 59, 44, 42, 7, 31, 22, 21, 53, 56, 52, 61, 29, 22, 29, 13, 39, 48, 10, 18, 26, 13, 74, 36, 51, 68, 23, 14, 58, 32, 74, 67, 40, 56, 81, 27, 33, 34, 50, 19, 41, 9, 65, 69, 17, 38, 63, 59, 57, 61, 59, 61, 67, 73, 53, 71, 9, 22, 76, 45, 28, 32, 67, 69, 43, 23, 47, 38, 65, 21, 69, 64, 28, 77, 38, 26, 66, 49, 67, 67, 40, 14, 58, 56, 93, 67, 26, 63, 82, 50, 20, 82, 49, 52, 66, 64, 16, 43, 69, 17, 58, 47, 21, 7, 72, 18, 23, 40, 44, 30, 67, 34, 63, 57, 78, 37, 38, 84, 77, 42, 24, 56, 28, 71, 30, 44, 29, 29, 21, 48
              |22, 47, 32, 63, 18, 54, 35, 30, 12, 21, 60, 30, 19, 43, 44, 61, 41, 51, 31, 57, 67, 37, 40, 22, 20, 40, 72, 58, 3, 48, 43, 53, 18, 66, 27, 50, 33, 25, 41, 20, 13, 45, 56, 52, 52, 44, 9, 62, 43, 56, 23, 45, 39, 28, 22, 41, 7, 7, 32, 53, 42, 45, 36, 16, 8, 22, 6, 68, 34, 52, 28, 69, 25, 50, 28, 60, 31, 43, 37, 48, 51, 50, 55, 45, 35, 41, 18, 57, 24, 27, 48, 51, 38, 75, 38, 20, 30, 55, 34, 58, 26, 53, 64, 61, 20, 44, 37, 34, 57, 67, 46, 25, 26, 33, 68, 31, 47, 27, 73, 48, 37, 31, 29, 33, 20, 37, 46, 13, 63, 64, 37, 36, 41, 52, 12, 36, 38, 42, 56, 43, 23, 22, 38, 61, 63, 49, 28, 46, 24, 69, 67, 22, 56, 41, 36, 48, 66, 25, 53, 44, 40, 19, 26, 58, 41, 20, 34, 57, 28, 26, 44, 35, 9, 11, 45, 8, 60, 41, 53, 24, 66, 34, 56, 57, 66, 47, 30, 45, 29, 21, 12, 45, 44, 43, 57, 30, 17, 27, 35, 6, 38, 57, 39, 53, 45, 51, 6, 28, 12, 42, 79, 45, 54, 45, 50, 57, 30, 64, 23, 55, 62, 57, 57, 36, 57, 33, 37, 43, 38, 17, 37, 60, 43, 32, 12, 16, 23, 13, 44, 34, 33, 57, 12, 43, 21, 45, 37, 17, 28, 33, 16, 38, 54, 42, 56, 29, 12, 36, 44, 35, 35, 48, 16, 37, 47, 27, 42, 58, 37, 26, 35, 10, 43, 43, 38, 56, 24, 18, 61, 34, 37, 11, 42, 64, 40, 44, 49, 48, 39, 80, 37, 18, 37, 39, 54, 45, 24, 36, 40, 11
              |43, 67, 9, 49, 31, 56, 32, 46, 26, 50, 40, 30, 28, 42, 25, 48, 19, 73, 36, 30, 47, 7, 19, 26, 13, 40, 49, 45, 34, 35, 23, 47, 13, 42, 37, 20, 52, 51, 22, 45, 43, 14, 25, 21, 22, 14, 23, 49, 69, 35, 51, 57, 18, 57, 14, 69, 37, 31, 52, 27, 60, 65, 45, 34, 38, 27, 25, 42, 17, 30, 59, 42, 56, 37, 11, 33, 6, 44, 19, 69, 35, 38, 54, 71, 61, 64, 49, 26, 8, 51, 72, 69, 29, 54, 64, 41, 53, 34, 28, 39, 35, 61, 50, 43, 26, 51, 33, 59, 29, 50, 54, 24, 52, 17, 43, 62, 57, 57, 49, 38, 22, 60, 20, 29, 29, 41, 65, 23, 33, 33, 62, 45, 59, 23, 19, 57, 53, 54, 52, 68, 47, 33, 30, 39, 51, 58, 37, 15, 8, 52, 50, 44, 78, 40, 66, 74, 39, 55, 34, 17, 56, 26, 57, 32, 66, 49, 57, 28, 15, 9, 37, 62, 39, 39, 26, 23, 39, 38, 66, 41, 39, 62, 25, 29, 40, 21, 46, 28, 18, 21, 20, 18, 57, 50, 34, 57, 14, 9, 39, 27, 59, 47, 52, 68, 67, 20, 25, 42, 40, 36, 59, 29, 45, 50, 37, 27, 48, 42, 42, 72, 41, 41, 47, 67, 35, 64, 27, 40, 66, 30, 42, 52, 48, 57, 30, 15, 49, 24, 70, 3, 55, 75, 19, 62, 21, 43, 48, 47, 57, 64, 25, 9, 70, 64, 80, 60, 22, 45, 70, 57, 4, 66, 46, 33, 46, 51, 35, 30, 67, 6, 39, 36, 39, 27, 56, 32, 30, 24, 32, 10, 67, 22, 67, 40, 70, 51, 22, 69, 64, 59, 39, 45, 9, 54, 23, 24, 36, 42, 37, 42
              |15, 35, 26, 78, 6, 30, 54, 14, 33, 42, 42, 8, 6, 63, 28, 40, 29, 41, 7, 46, 49, 36, 28, 41, 30, 16, 54, 37, 25, 27, 29, 72, 25, 50, 49, 51, 20, 25, 52, 43, 34, 45, 53, 52, 54, 46, 19, 78, 39, 39, 27, 69, 27, 48, 19, 43, 30, 31, 21, 41, 27, 69, 14, 39, 32, 41, 24, 74, 23, 62, 37, 57, 37, 65, 37, 49, 37, 19, 24, 71, 64, 65, 31, 41, 33, 34, 35, 53, 30, 23, 70, 36, 54, 57, 61, 44, 23, 40, 51, 40, 2, 31, 42, 73, 7, 21, 55, 30, 62, 47, 24, 43, 24, 45, 54, 44, 70, 34, 81, 64, 22, 51, 43, 51, 41, 58, 70, 14, 58, 60, 60, 59, 66, 56, 24, 60, 62, 22, 33, 65, 47, 44, 54, 45, 41, 27, 5, 41, 30, 49, 81, 46, 46, 61, 53, 70, 72, 33, 36, 35, 23, 8, 38, 64, 64, 29, 57, 60, 19, 23, 22, 34, 25, 22, 30, 21, 43, 18, 34, 48, 71, 36, 53, 47, 53, 37, 14, 58, 17, 12, 18, 37, 68, 20, 66, 52, 21, 24, 56, 18, 62, 74, 19, 36, 69, 49, 23, 9, 35, 19, 59, 27, 71, 67, 30, 58, 54, 74, 47, 40, 73, 71, 74, 52, 67, 50, 18, 20, 59, 39, 13, 37, 65, 55, 34, 21, 23, 32, 40, 35, 56, 42, 22, 67, 37, 21, 60, 27, 49, 44, 36, 34, 38, 32, 79, 47, 16, 59, 66, 25, 36, 72, 28, 55, 67, 51, 21, 62, 46, 26, 56, 34, 20, 25, 62, 42, 2, 37, 64, 41, 43, 28, 37, 73, 59, 21, 54, 71, 62, 61, 13, 41, 42, 63, 52, 55, 4, 12, 17, 29
              |27, 39, 27, 84, 19, 21, 62, 22, 44, 56, 30, 7, 18, 72, 20, 26, 24, 46, 8, 39, 37, 36, 23, 51, 38, 4, 43, 24, 38, 15, 22, 80, 32, 39, 60, 50, 27, 36, 57, 56, 47, 45, 50, 51, 55, 46, 30, 84, 48, 28, 39, 80, 23, 62, 24, 54, 43, 43, 29, 34, 32, 82, 14, 51, 45, 51, 35, 76, 20, 65, 49, 48, 50, 72, 43, 41, 41, 9, 20, 84, 70, 72, 20, 50, 43, 41, 49, 49, 36, 34, 84, 39, 62, 45, 74, 56, 33, 30, 59, 28, 13, 26, 28, 78, 17, 17, 63, 40, 63, 34, 19, 52, 35, 51, 44, 57, 82, 47, 83, 71, 16, 64, 50, 59, 51, 68, 82, 25, 54, 56, 73, 70, 78, 56, 33, 72, 74, 22, 20, 78, 60, 55, 62, 35, 28, 23, 12, 39, 36, 36, 86, 59, 50, 70, 67, 84, 72, 45, 25, 31, 27, 18, 51, 66, 77, 42, 70, 59, 21, 27, 9, 44, 38, 35, 22, 32, 32, 4, 33, 59, 72, 47, 49, 41, 44, 32, 22, 63, 17, 19, 28, 33, 80, 16, 69, 65, 29, 27, 66, 30, 75, 81, 21, 36, 82, 47, 34, 18, 48, 6, 47, 17, 78, 77, 18, 57, 66, 77, 59, 41, 76, 77, 81, 65, 70, 64, 11, 7, 72, 50, 9, 23, 75, 68, 46, 29, 34, 43, 49, 38, 69, 44, 31, 79, 46, 9, 72, 40, 62, 57, 46, 33, 38, 38, 92, 60, 27, 70, 79, 33, 37, 84, 41, 63, 76, 64, 8, 62, 58, 30, 66, 47, 6, 17, 75, 33, 13, 47, 64, 45, 55, 38, 46, 75, 73, 17, 56, 84, 75, 49, 4, 54, 45, 75, 50, 60, 16, 9, 4, 43
              |68, 89, 29, 52, 55, 69, 50, 69, 53, 77, 37, 50, 52, 59, 33, 51, 27, 95, 56, 19, 40, 21, 29, 50, 40, 56, 39, 48, 61, 43, 30, 59, 40, 33, 60, 11, 74, 76, 32, 71, 70, 14, 2, 8, 14, 16, 50, 53, 94, 34, 77, 78, 29, 84, 38, 95, 64, 58, 76, 21, 81, 89, 65, 60, 65, 51, 52, 30, 33, 30, 85, 25, 83, 45, 34, 19, 28, 59, 32, 93, 41, 47, 65, 96, 87, 88, 76, 3, 34, 76, 97, 90, 45, 45, 89, 67, 77, 30, 46, 38, 56, 77, 52, 42, 50, 69, 50, 84, 19, 46, 71, 47, 77, 35, 30, 89, 77, 83, 38, 49, 35, 87, 40, 47, 53, 60, 88, 49, 6, 6, 88, 66, 81, 16, 46, 82, 75, 73, 61, 93, 72, 56, 45, 32, 54, 75, 59, 14, 34, 48, 50, 69, 100, 57, 93, 99, 26, 81, 35, 21, 77, 50, 84, 24, 92, 76, 82, 14, 36, 33, 48, 87, 66, 66, 31, 50, 34, 52, 85, 65, 25, 88, 2, 16, 25, 20, 69, 37, 38, 44, 47, 19, 78, 67, 31, 83, 41, 32, 59, 54, 83, 55, 72, 87, 91, 7, 52, 64, 67, 50, 50, 37, 54, 67, 43, 11, 72, 36, 67, 92, 37, 45, 55, 94, 33, 91, 41, 53, 92, 55, 60, 58, 66, 83, 56, 42, 75, 50, 95, 24, 80, 96, 46, 85, 45, 57, 70, 73, 84, 91, 51, 22, 90, 87, 104, 87, 48, 65, 95, 80, 23, 88, 73, 50, 61, 77, 47, 18, 94, 32, 59, 63, 52, 36, 79, 27, 53, 49, 16, 28, 94, 49, 92, 33, 96, 69, 20, 93, 90, 49, 56, 72, 24, 77, 4, 31, 59, 60, 52, 69
              |18, 41, 22, 70, 4, 38, 45, 21, 25, 37, 44, 12, 2, 55, 28, 44, 27, 47, 15, 44, 51, 30, 26, 33, 22, 23, 56, 41, 19, 30, 28, 63, 17, 51, 41, 45, 26, 26, 44, 37, 29, 40, 49, 47, 48, 40, 11, 70, 43, 40, 27, 61, 25, 44, 13, 45, 24, 23, 26, 40, 34, 63, 22, 32, 26, 33, 16, 68, 20, 54, 36, 56, 36, 57, 29, 48, 30, 26, 23, 65, 57, 57, 39, 45, 36, 38, 32, 49, 23, 26, 65, 43, 46, 59, 56, 37, 27, 40, 43, 42, 10, 39, 46, 66, 2, 30, 47, 34, 55, 50, 32, 35, 26, 37, 54, 43, 63, 34, 74, 56, 22, 47, 35, 43, 33, 50, 63, 6, 55, 56, 54, 51, 59, 49, 15, 53, 55, 30, 39, 60, 41, 36, 46, 46, 46, 35, 14, 37, 23, 52, 73, 39, 52, 53, 50, 65, 65, 32, 37, 32, 31, 1, 37, 58, 58, 28, 51, 54, 15, 17, 27, 37, 21, 19, 30, 13, 44, 24, 42, 40, 65, 38, 48, 45, 53, 35, 21, 50, 14, 6, 10, 34, 60, 28, 59, 47, 14, 18, 48, 11, 56, 66, 27, 43, 63, 44, 15, 16, 29, 24, 62, 28, 63, 59, 33, 52, 47, 66, 40, 47, 65, 63, 66, 50, 59, 48, 20, 26, 54, 31, 21, 42, 57, 49, 26, 13, 24, 24, 44, 29, 50, 50, 13, 60, 29, 28, 53, 25, 45, 43, 28, 29, 45, 37, 74, 44, 8, 51, 61, 31, 30, 65, 26, 47, 59, 44, 25, 56, 46, 20, 48, 27, 25, 26, 55, 42, 7, 29, 58, 34, 44, 20, 41, 66, 56, 30, 48, 65, 56, 64, 20, 35, 35, 55, 47, 48, 11, 20, 23, 25
              |29, 4, 65, 113, 40, 36, 86, 24, 63, 55, 71, 43, 43, 93, 63, 62, 66, 4, 37, 81, 77, 74, 65, 73, 66, 40, 83, 61, 49, 57, 65, 103, 61, 80, 77, 89, 19, 27, 88, 63, 51, 84, 91, 90, 93, 84, 52, 112, 17, 70, 31, 92, 64, 58, 57, 27, 52, 57, 19, 76, 11, 85, 28, 65, 53, 72, 55, 112, 60, 99, 35, 91, 40, 100, 74, 84, 74, 38, 61, 85, 100, 100, 42, 17, 20, 11, 47, 90, 67, 24, 81, 4, 88, 83, 73, 66, 21, 72, 84, 69, 36, 26, 63, 110, 44, 28, 87, 19, 100, 72, 27, 76, 25, 81, 86, 44, 94, 33, 119, 98, 58, 59, 78, 84, 71, 87, 86, 49, 95, 97, 72, 85, 85, 94, 57, 77, 84, 21, 48, 76, 67, 72, 88, 77, 62, 25, 34, 79, 67, 73, 117, 67, 8, 91, 56, 79, 110, 34, 67, 72, 16, 45, 40, 102, 75, 37, 73, 98, 57, 62, 49, 22, 44, 41, 65, 53, 73, 44, 16, 72, 109, 26, 90, 83, 86, 74, 24, 94, 55, 50, 53, 74, 90, 29, 103, 64, 58, 62, 85, 49, 80, 107, 22, 12, 83, 87, 54, 29, 56, 47, 83, 60, 104, 95, 58, 96, 75, 111, 70, 8, 110, 107, 107, 53, 104, 53, 53, 44, 66, 68, 34, 54, 93, 69, 62, 57, 28, 63, 17, 74, 74, 8, 56, 85, 70, 42, 85, 37, 59, 41, 67, 72, 10, 9, 89, 52, 51, 86, 75, 15, 74, 89, 39, 87, 97, 68, 50, 100, 39, 64, 85, 57, 45, 59, 82, 76, 40, 69, 102, 79, 33, 60, 16, 110, 63, 28, 92, 85, 73, 86, 38, 58, 80, 84, 90, 92, 34, 33, 44, 46
              |28, 29, 66, 101, 41, 58, 72, 32, 51, 33, 85, 51, 44, 77, 72, 80, 72, 26, 47, 89, 92, 74, 71, 60, 59, 54, 97, 78, 37, 70, 72, 88, 56, 93, 60, 89, 29, 19, 81, 43, 33, 83, 93, 90, 91, 83, 46, 100, 13, 82, 18, 70, 70, 33, 57, 2, 37, 44, 26, 84, 30, 60, 42, 50, 38, 59, 46, 107, 65, 92, 12, 100, 17, 89, 67, 92, 71, 55, 67, 59, 90, 88, 63, 12, 12, 19, 26, 94, 63, 21, 54, 33, 77, 99, 47, 48, 22, 83, 72, 83, 43, 50, 81, 100, 46, 47, 74, 15, 97, 89, 48, 64, 19, 73, 97, 18, 73, 13, 113, 85, 65, 33, 68, 71, 57, 71, 62, 46, 100, 101, 47, 67, 62, 91, 51, 53, 63, 41, 68, 50, 46, 57, 76, 89, 80, 47, 42, 82, 63, 90, 106, 48, 28, 76, 28, 51, 106, 15, 79, 77, 34, 46, 16, 98, 49, 20, 50, 96, 60, 62, 63, 10, 31, 30, 74, 46, 86, 58, 43, 54, 106, 7, 93, 90, 97, 80, 32, 84, 59, 51, 49, 79, 69, 48, 97, 40, 55, 63, 69, 42, 56, 93, 39, 40, 57, 88, 45, 37, 38, 60, 101, 70, 91, 76, 72, 95, 54, 104, 51, 37, 102, 96, 93, 25, 97, 26, 62, 59, 39, 53, 48, 73, 75, 45, 49, 54, 21, 52, 12, 72, 51, 37, 50, 61, 60, 59, 65, 23, 34, 13, 55, 74, 38, 24, 61, 26, 47, 68, 48, 24, 73, 65, 24, 74, 81, 46, 63, 97, 10, 63, 69, 41, 60, 69, 60, 86, 45, 57, 101, 74, 4, 51, 13, 104, 35, 47, 89, 59, 47, 103, 51, 38, 76, 62, 91, 85, 40, 47, 57, 30
              |61, 87, 46, 26, 54, 88, 6, 69, 28, 44, 78, 61, 53, 4, 63, 86, 57, 91, 66, 66, 85, 43, 57, 18, 30, 72, 86, 83, 41, 72, 60, 13, 36, 80, 16, 44, 72, 64, 23, 34, 43, 42, 53, 46, 41, 40, 41, 25, 82, 73, 61, 24, 56, 48, 44, 77, 40, 33, 72, 64, 81, 38, 73, 26, 38, 18, 36, 44, 54, 29, 64, 77, 59, 16, 27, 68, 32, 76, 56, 43, 20, 14, 88, 83, 74, 81, 50, 56, 33, 67, 49, 90, 10, 92, 44, 29, 69, 71, 9, 77, 61, 90, 88, 29, 53, 81, 5, 73, 41, 88, 83, 16, 66, 21, 79, 61, 22, 64, 45, 11, 59, 50, 18, 9, 20, 7, 38, 45, 61, 60, 44, 14, 30, 40, 36, 35, 24, 80, 87, 47, 32, 18, 9, 76, 89, 86, 65, 49, 33, 90, 32, 30, 95, 3, 58, 53, 45, 62, 72, 55, 79, 52, 60, 38, 46, 57, 36, 44, 49, 43, 72, 73, 47, 50, 64, 39, 77, 72, 92, 23, 46, 72, 54, 64, 75, 58, 69, 19, 52, 49, 41, 55, 25, 79, 32, 44, 39, 44, 8, 43, 35, 18, 77, 92, 42, 49, 37, 66, 37, 71, 96, 66, 15, 13, 74, 46, 27, 36, 26, 95, 33, 23, 18, 60, 31, 57, 62, 74, 52, 23, 72, 88, 11, 40, 28, 39, 63, 28, 82, 38, 35, 97, 38, 34, 22, 77, 18, 55, 47, 65, 24, 47, 94, 82, 55, 54, 43, 13, 50, 75, 39, 36, 53, 5, 8, 35, 70, 42, 69, 41, 8, 35, 73, 64, 29, 70, 58, 22, 47, 30, 72, 31, 81, 38, 58, 81, 35, 43, 45, 97, 70, 38, 33, 26, 50, 24, 61, 71, 71, 46
              |80, 106, 53, 6, 70, 100, 27, 86, 48, 69, 79, 73, 68, 27, 68, 90, 61, 111, 79, 63, 84, 46, 62, 39, 44, 84, 84, 87, 62, 78, 64, 19, 49, 78, 41, 37, 91, 85, 22, 59, 67, 39, 46, 39, 33, 37, 58, 7, 103, 75, 83, 47, 61, 73, 55, 100, 62, 55, 90, 63, 99, 63, 88, 50, 61, 39, 55, 23, 61, 16, 87, 71, 82, 10, 37, 64, 38, 88, 62, 68, 9, 12, 98, 105, 96, 101, 73, 49, 44, 87, 74, 109, 22, 90, 70, 54, 89, 72, 27, 79, 76, 104, 92, 5, 67, 94, 25, 94, 27, 89, 97, 35, 86, 29, 76, 85, 44, 86, 21, 15, 66, 76, 32, 27, 42, 33, 62, 61, 52, 50, 69, 39, 55, 31, 52, 61, 49, 96, 96, 73, 58, 42, 23, 75, 93, 101, 79, 48, 44, 91, 7, 55, 115, 27, 84, 78, 25, 84, 75, 56, 97, 66, 83, 22, 72, 79, 62, 32, 59, 53, 81, 95, 68, 71, 67, 56, 77, 82, 108, 48, 28, 94, 47, 60, 71, 58, 86, 16, 62, 62, 57, 55, 48, 93, 15, 69, 52, 52, 34, 61, 60, 12, 93, 109, 67, 44, 56, 82, 61, 80, 95, 72, 13, 34, 80, 35, 52, 14, 51, 113, 11, 3, 12, 86, 13, 82, 71, 84, 77, 45, 85, 95, 34, 66, 50, 53, 83, 47, 104, 42, 60, 115, 54, 59, 40, 87, 43, 77, 73, 89, 44, 49, 111, 101, 79, 79, 59, 38, 76, 94, 43, 60, 75, 25, 26, 61, 79, 29, 93, 49, 34, 58, 83, 70, 54, 69, 72, 42, 32, 34, 96, 50, 102, 17, 83, 94, 27, 68, 71, 95, 82, 63, 35, 51, 43, 20, 77, 85, 81, 69
              |16, 40, 41, 74, 21, 53, 45, 25, 23, 17, 66, 33, 23, 51, 51, 66, 49, 42, 33, 66, 74, 48, 49, 33, 31, 41, 79, 63, 9, 53, 51, 62, 29, 73, 34, 62, 27, 15, 53, 21, 9, 56, 67, 63, 63, 56, 19, 73, 33, 63, 12, 50, 47, 22, 31, 29, 9, 16, 25, 62, 35, 46, 35, 23, 11, 32, 18, 79, 42, 64, 17, 78, 14, 61, 39, 69, 43, 44, 45, 47, 62, 60, 56, 34, 25, 32, 9, 68, 36, 19, 45, 43, 49, 82, 36, 24, 22, 63, 45, 65, 27, 50, 68, 72, 25, 42, 47, 24, 69, 73, 44, 36, 17, 45, 77, 20, 52, 16, 85, 58, 44, 25, 40, 44, 30, 45, 47, 21, 74, 75, 35, 43, 44, 64, 23, 36, 42, 39, 58, 40, 25, 31, 48, 69, 67, 46, 29, 56, 36, 75, 78, 25, 47, 50, 27, 44, 78, 13, 60, 53, 35, 24, 15, 70, 38, 8, 34, 69, 36, 36, 48, 24, 3, 4, 53, 19, 67, 44, 48, 30, 78, 23, 67, 66, 75, 57, 25, 56, 36, 28, 22, 55, 49, 42, 68, 26, 28, 37, 43, 15, 39, 67, 36, 47, 45, 62, 17, 26, 13, 45, 85, 51, 64, 52, 56, 68, 33, 76, 28, 48, 74, 68, 67, 27, 68, 25, 43, 46, 33, 26, 37, 63, 51, 30, 21, 27, 15, 24, 33, 45, 33, 50, 23, 44, 32, 47, 43, 6, 23, 22, 27, 48, 48, 34, 54, 21, 21, 43, 40, 28, 46, 49, 4, 47, 55, 27, 47, 70, 25, 37, 43, 15, 46, 49, 41, 65, 27, 29, 73, 46, 26, 23, 31, 76, 33, 42, 61, 47, 36, 87, 39, 17, 48, 42, 65, 56, 24, 36, 43, 4
              |81, 107, 57, 3, 72, 103, 25, 87, 48, 67, 84, 76, 70, 23, 72, 95, 65, 111, 82, 68, 90, 50, 66, 38, 46, 87, 90, 92, 62, 82, 69, 13, 51, 84, 39, 43, 92, 85, 26, 57, 65, 44, 52, 45, 39, 42, 59, 2, 103, 80, 83, 42, 65, 71, 58, 99, 62, 54, 91, 69, 101, 58, 90, 48, 60, 39, 56, 30, 65, 22, 86, 77, 81, 11, 39, 70, 42, 91, 66, 63, 13, 11, 102, 105, 96, 102, 72, 55, 46, 87, 70, 110, 22, 96, 66, 52, 90, 77, 26, 84, 78, 107, 97, 12, 69, 97, 24, 94, 34, 94, 99, 35, 87, 32, 82, 84, 39, 86, 27, 13, 70, 73, 33, 27, 41, 29, 57, 63, 58, 57, 66, 35, 50, 37, 53, 57, 45, 98, 99, 68, 55, 41, 23, 81, 98, 103, 81, 53, 46, 96, 10, 52, 116, 24, 81, 74, 33, 84, 80, 61, 98, 68, 82, 29, 68, 79, 59, 39, 62, 56, 84, 95, 68, 71, 72, 57, 82, 86, 110, 46, 35, 93, 53, 66, 77, 63, 87, 19, 65, 65, 58, 60, 43, 96, 22, 66, 55, 56, 31, 62, 56, 6, 95, 111, 62, 49, 57, 84, 60, 84, 101, 76, 8, 29, 84, 42, 49, 21, 49, 114, 18, 8, 6, 83, 20, 80, 74, 87, 74, 45, 88, 100, 29, 63, 49, 55, 84, 48, 104, 46, 57, 117, 55, 54, 40, 91, 39, 76, 70, 88, 44, 54, 113, 102, 74, 77, 60, 34, 72, 95, 47, 55, 75, 24, 21, 58, 82, 35, 92, 53, 31, 57, 86, 74, 50, 75, 74, 42, 39, 37, 95, 50, 102, 24, 80, 97, 33, 63, 67, 100, 85, 61, 39, 47, 49, 24, 79, 87, 85, 68
              |37, 52, 18, 76, 25, 31, 58, 34, 43, 60, 21, 14, 23, 68, 7, 23, 12, 59, 19, 26, 28, 26, 11, 48, 34, 17, 33, 20, 42, 9, 9, 74, 29, 28, 58, 39, 39, 46, 49, 59, 52, 34, 38, 39, 44, 36, 31, 76, 60, 17, 48, 79, 11, 67, 21, 65, 47, 44, 41, 21, 44, 83, 27, 52, 48, 49, 36, 65, 10, 56, 58, 36, 58, 64, 37, 29, 33, 20, 9, 86, 62, 65, 28, 62, 54, 53, 55, 36, 30, 44, 87, 52, 56, 36, 78, 57, 44, 18, 54, 19, 22, 38, 25, 69, 21, 30, 58, 51, 52, 28, 32, 48, 46, 44, 32, 65, 80, 56, 73, 65, 5, 70, 45, 54, 50, 65, 84, 27, 41, 43, 76, 68, 78, 45, 32, 74, 74, 35, 25, 82, 62, 53, 56, 24, 25, 36, 23, 27, 30, 30, 77, 60, 63, 66, 73, 88, 61, 54, 14, 18, 40, 22, 59, 55, 81, 50, 73, 48, 15, 20, 10, 55, 44, 42, 9, 33, 22, 13, 46, 60, 60, 58, 37, 28, 32, 19, 34, 56, 12, 19, 29, 21, 79, 28, 59, 69, 26, 20, 63, 33, 77, 74, 34, 49, 84, 35, 36, 29, 52, 11, 39, 5, 72, 74, 11, 46, 67, 67, 60, 54, 66, 68, 74, 73, 61, 70, 3, 14, 77, 49, 22, 25, 72, 72, 46, 27, 44, 42, 61, 29, 71, 57, 31, 80, 43, 18, 70, 47, 67, 66, 45, 22, 51, 51, 96, 67, 28, 68, 83, 45, 28, 85, 48, 58, 72, 66, 8, 51, 67, 23, 63, 49, 13, 4, 75, 21, 20, 45, 52, 37, 65, 38, 58, 65, 79, 30, 46, 86, 79, 41, 17, 57, 36, 75, 37, 51, 25, 22, 13, 48
              |50, 74, 15, 43, 37, 63, 30, 53, 30, 54, 43, 37, 35, 40, 30, 53, 23, 80, 43, 30, 50, 8, 24, 27, 17, 47, 51, 50, 39, 40, 27, 43, 19, 44, 37, 14, 59, 57, 16, 48, 48, 9, 21, 16, 16, 8, 29, 43, 76, 39, 57, 57, 23, 61, 21, 76, 42, 35, 59, 29, 67, 66, 52, 37, 42, 28, 30, 35, 23, 23, 64, 42, 62, 32, 11, 33, 5, 51, 25, 70, 29, 33, 60, 77, 68, 71, 54, 23, 12, 58, 74, 76, 26, 56, 66, 44, 60, 36, 26, 43, 42, 68, 55, 36, 33, 58, 30, 66, 22, 53, 60, 24, 58, 14, 44, 67, 56, 63, 42, 34, 28, 64, 18, 27, 30, 39, 66, 30, 29, 29, 65, 45, 59, 17, 24, 59, 53, 61, 58, 70, 49, 34, 26, 41, 56, 65, 45, 14, 12, 55, 44, 46, 85, 38, 70, 76, 32, 61, 38, 20, 63, 33, 63, 25, 69, 55, 59, 21, 22, 16, 43, 68, 45, 45, 30, 29, 42, 45, 73, 42, 32, 69, 22, 28, 40, 22, 53, 23, 25, 28, 27, 19, 57, 57, 27, 60, 21, 16, 38, 33, 61, 42, 59, 75, 69, 16, 30, 49, 44, 43, 61, 34, 40, 48, 42, 20, 50, 35, 44, 79, 34, 36, 42, 71, 28, 68, 33, 46, 69, 32, 49, 58, 46, 60, 33, 22, 56, 27, 76, 4, 57, 82, 25, 62, 22, 50, 48, 52, 61, 69, 28, 12, 77, 70, 81, 64, 28, 44, 72, 64, 5, 66, 52, 30, 43, 53, 41, 23, 73, 13, 38, 40, 45, 32, 57, 35, 37, 26, 26, 6, 73, 26, 74, 33, 73, 58, 15, 70, 67, 61, 46, 49, 3, 55, 19, 18, 43, 49, 44, 47
              |60, 80, 71, 65, 61, 96, 43, 69, 40, 27, 102, 73, 63, 39, 86, 105, 81, 80, 75, 95, 110, 72, 81, 40, 53, 83, 113, 102, 42, 91, 84, 49, 56, 107, 30, 80, 70, 56, 61, 24, 34, 76, 88, 82, 79, 74, 52, 64, 68, 98, 52, 20, 80, 24, 63, 59, 38, 39, 68, 92, 77, 4, 78, 32, 36, 39, 46, 85, 76, 69, 47, 108, 42, 57, 56, 98, 62, 86, 79, 4, 61, 55, 99, 68, 62, 71, 36, 90, 58, 60, 8, 84, 49, 117, 9, 25, 63, 97, 46, 101, 69, 93, 107, 70, 64, 86, 44, 63, 80, 110, 87, 43, 58, 56, 108, 39, 24, 49, 86, 52, 80, 24, 50, 45, 37, 34, 6, 56, 96, 96, 10, 27, 11, 78, 51, 8, 17, 82, 100, 8, 21, 34, 48, 103, 107, 89, 71, 81, 58, 112, 71, 23, 84, 39, 30, 13, 85, 48, 96, 82, 78, 63, 42, 78, 9, 46, 10, 83, 69, 66, 88, 60, 43, 47, 87, 50, 102, 85, 91, 25, 87, 56, 89, 94, 105, 86, 69, 59, 71, 64, 54, 83, 19, 85, 73, 18, 57, 66, 33, 50, 7, 56, 79, 89, 1, 83, 47, 69, 32, 86, 121, 87, 53, 33, 94, 84, 17, 77, 23, 89, 74, 64, 56, 33, 72, 31, 80, 87, 18, 36, 80, 104, 32, 13, 37, 57, 56, 42, 68, 68, 11, 90, 52, 7, 45, 89, 23, 47, 23, 43, 41, 75, 89, 74, 14, 31, 55, 28, 11, 69, 69, 9, 45, 44, 40, 17, 86, 81, 47, 64, 33, 34, 87, 85, 12, 97, 68, 42, 86, 62, 53, 46, 67, 79, 24, 86, 73, 4, 10, 122, 81, 27, 66, 15, 85, 63, 67, 79, 84, 40
              |49, 72, 11, 50, 36, 57, 37, 51, 34, 58, 36, 33, 33, 47, 23, 46, 16, 78, 40, 23, 42, 1, 17, 33, 21, 42, 44, 43, 41, 34, 20, 50, 20, 37, 43, 14, 56, 57, 23, 52, 51, 9, 18, 15, 18, 9, 30, 50, 75, 32, 57, 63, 16, 64, 19, 76, 45, 38, 57, 21, 64, 72, 49, 42, 45, 33, 32, 38, 17, 29, 65, 35, 63, 39, 17, 26, 11, 45, 18, 76, 36, 40, 55, 77, 67, 70, 56, 19, 15, 57, 79, 73, 33, 49, 71, 48, 58, 29, 33, 36, 39, 63, 48, 42, 31, 54, 37, 65, 25, 46, 56, 30, 58, 21, 37, 69, 63, 64, 46, 41, 22, 67, 25, 34, 36, 46, 72, 30, 25, 26, 69, 51, 65, 19, 26, 64, 59, 57, 52, 75, 54, 39, 34, 34, 49, 60, 41, 8, 15, 48, 50, 51, 82, 45, 73, 81, 35, 61, 31, 12, 60, 31, 64, 29, 73, 56, 64, 23, 18, 14, 37, 68, 46, 46, 23, 30, 34, 39, 69, 47, 35, 69, 18, 22, 33, 15, 51, 30, 21, 25, 27, 12, 63, 52, 32, 64, 21, 13, 45, 34, 66, 49, 55, 72, 74, 13, 32, 46, 48, 37, 54, 27, 48, 55, 35, 21, 55, 40, 49, 76, 40, 42, 49, 74, 34, 71, 27, 41, 73, 37, 45, 51, 53, 64, 37, 22, 55, 31, 76, 5, 62, 79, 26, 68, 27, 44, 54, 53, 65, 71, 32, 5, 74, 68, 87, 67, 28, 50, 77, 62, 4, 72, 53, 37, 50, 58, 35, 25, 74, 12, 45, 44, 39, 26, 62, 27, 35, 31, 27, 13, 74, 29, 73, 38, 77, 54, 19, 76, 72, 54, 41, 52, 10, 61, 16, 25, 41, 45, 39, 49
              |52, 69, 73, 78, 57, 90, 53, 61, 43, 21, 102, 70, 59, 52, 86, 103, 82, 68, 70, 98, 109, 76, 82, 47, 56, 79, 114, 100, 40, 89, 85, 62, 58, 108, 39, 86, 61, 47, 69, 25, 30, 82, 94, 88, 86, 80, 51, 77, 55, 98, 43, 36, 81, 15, 64, 45, 35, 39, 59, 94, 67, 21, 71, 35, 34, 46, 46, 95, 76, 79, 36, 111, 31, 69, 61, 101, 67, 81, 79, 17, 72, 67, 93, 55, 50, 60, 28, 96, 62, 51, 11, 73, 59, 117, 9, 29, 54, 97, 55, 100, 64, 85, 105, 82, 61, 79, 54, 52, 89, 109, 80, 50, 49, 63, 110, 26, 39, 38, 97, 64, 79, 13, 57, 54, 43, 46, 22, 55, 102, 102, 9, 39, 26, 85, 52, 18, 30, 74, 95, 8, 24, 40, 58, 103, 104, 82, 66, 85, 62, 111, 84, 26, 71, 51, 15, 8, 95, 37, 95, 85, 69, 60, 31, 87, 8, 37, 16, 90, 70, 67, 85, 48, 38, 41, 87, 50, 102, 81, 81, 32, 96, 44, 94, 97, 108, 88, 61, 69, 71, 62, 54, 86, 34, 78, 83, 13, 58, 68, 45, 48, 19, 69, 71, 79, 16, 89, 47, 63, 30, 82, 121, 87, 66, 47, 92, 91, 26, 88, 29, 78, 85, 76, 69, 18, 82, 17, 79, 83, 4, 40, 74, 100, 46, 13, 40, 57, 48, 45, 55, 72, 18, 79, 53, 23, 51, 84, 36, 38, 14, 30, 45, 78, 78, 63, 18, 19, 54, 40, 5, 59, 73, 25, 37, 54, 54, 19, 83, 90, 33, 67, 45, 34, 83, 85, 25, 98, 64, 47, 94, 68, 39, 48, 55, 90, 9, 79, 81, 17, 8, 122, 76, 25, 72, 29, 91, 72, 62, 73, 80, 34
              |25, 7, 56, 107, 34, 27, 81, 17, 58, 55, 61, 34, 35, 89, 53, 52, 57, 14, 28, 72, 67, 66, 55, 68, 60, 30, 73, 51, 46, 47, 55, 99, 54, 70, 73, 81, 14, 26, 82, 61, 49, 76, 82, 82, 85, 76, 46, 107, 23, 60, 30, 90, 55, 59, 49, 33, 49, 53, 15, 67, 5, 85, 19, 62, 51, 68, 50, 105, 51, 92, 37, 81, 41, 94, 67, 74, 67, 28, 52, 85, 94, 94, 32, 24, 23, 15, 46, 81, 60, 22, 82, 6, 83, 73, 74, 64, 19, 62, 79, 59, 28, 17, 53, 103, 37, 18, 82, 21, 92, 62, 17, 71, 24, 74, 76, 47, 92, 34, 112, 93, 49, 60, 72, 79, 66, 83, 86, 42, 86, 88, 73, 82, 84, 86, 52, 76, 83, 11, 38, 77, 65, 69, 82, 67, 52, 15, 26, 70, 60, 63, 110, 65, 18, 87, 58, 80, 102, 35, 57, 63, 7, 38, 41, 95, 76, 36, 73, 90, 49, 54, 40, 25, 42, 38, 55, 48, 64, 34, 9, 69, 102, 30, 81, 74, 77, 65, 17, 87, 47, 42, 47, 65, 89, 19, 96, 64, 51, 55, 81, 43, 79, 102, 12, 7, 83, 78, 49, 21, 53, 37, 74, 50, 99, 91, 48, 88, 73, 104, 68, 9, 103, 101, 102, 56, 97, 56, 43, 34, 68, 64, 24, 44, 90, 69, 58, 51, 26, 58, 23, 66, 73, 12, 50, 84, 65, 32, 83, 36, 60, 44, 62, 63, 8, 11, 90, 54, 45, 83, 77, 13, 66, 89, 38, 82, 93, 67, 40, 92, 43, 57, 81, 54, 36, 50, 81, 66, 33, 64, 94, 72, 37, 55, 21, 103, 65, 18, 85, 85, 74, 76, 28, 57, 72, 82, 81, 85, 27, 24, 34, 44
              |75, 101, 48, 10, 65, 95, 22, 81, 43, 64, 75, 69, 63, 24, 63, 86, 56, 106, 74, 59, 81, 41, 57, 34, 39, 79, 81, 83, 57, 74, 60, 17, 44, 74, 37, 34, 86, 80, 18, 55, 62, 35, 43, 36, 30, 33, 53, 10, 98, 71, 78, 45, 56, 69, 51, 95, 57, 50, 85, 59, 94, 60, 83, 45, 56, 35, 50, 23, 56, 13, 82, 68, 78, 6, 32, 61, 34, 83, 58, 65, 4, 8, 93, 100, 91, 96, 69, 46, 39, 82, 71, 104, 17, 87, 66, 49, 84, 68, 22, 75, 71, 99, 88, 7, 62, 89, 21, 89, 25, 85, 92, 30, 81, 24, 73, 81, 42, 82, 23, 11, 61, 71, 27, 23, 37, 29, 59, 56, 49, 48, 66, 36, 52, 28, 47, 57, 46, 91, 91, 69, 53, 38, 18, 72, 89, 96, 74, 44, 39, 87, 12, 51, 110, 24, 79, 75, 25, 79, 71, 52, 92, 61, 79, 21, 68, 74, 59, 30, 54, 48, 76, 90, 63, 66, 63, 51, 73, 77, 103, 44, 27, 89, 44, 57, 68, 54, 81, 11, 57, 57, 52, 51, 46, 88, 13, 65, 48, 47, 30, 56, 57, 12, 88, 104, 64, 40, 51, 77, 56, 76, 92, 67, 12, 32, 75, 33, 49, 15, 47, 108, 11, 2, 12, 81, 11, 78, 66, 79, 74, 41, 80, 91, 31, 62, 45, 48, 78, 43, 99, 38, 57, 110, 49, 56, 35, 83, 40, 72, 69, 85, 39, 45, 106, 96, 76, 75, 54, 35, 72, 89, 38, 58, 71, 21, 24, 57, 74, 27, 89, 45, 30, 53, 78, 66, 51, 65, 67, 37, 31, 29, 91, 45, 97, 17, 79, 89, 24, 65, 67, 91, 78, 58, 30, 48, 40, 15, 72, 80, 77, 64
              |95, 120, 62, 21, 83, 110, 45, 100, 65, 87, 83, 85, 81, 46, 74, 96, 68, 125, 91, 65, 87, 54, 69, 56, 58, 94, 85, 93, 79, 85, 71, 37, 63, 79, 59, 41, 105, 101, 35, 77, 84, 45, 47, 41, 36, 43, 72, 22, 119, 79, 99, 66, 68, 92, 67, 117, 79, 72, 105, 67, 113, 82, 100, 68, 78, 57, 71, 16, 70, 25, 104, 70, 100, 29, 50, 65, 50, 98, 71, 87, 26, 31, 107, 121, 111, 116, 91, 49, 57, 102, 93, 122, 40, 91, 89, 72, 104, 76, 44, 83, 89, 115, 97, 16, 80, 106, 44, 110, 28, 92, 108, 52, 102, 43, 76, 103, 63, 103, 8, 34, 74, 94, 48, 45, 60, 52, 81, 75, 50, 48, 88, 58, 74, 34, 67, 80, 68, 108, 103, 92, 76, 60, 41, 78, 99, 112, 92, 53, 57, 94, 14, 73, 130, 46, 102, 97, 20, 101, 80, 62, 110, 79, 101, 24, 91, 96, 81, 33, 69, 64, 89, 111, 85, 87, 74, 71, 80, 92, 120, 67, 22, 110, 48, 62, 71, 63, 100, 31, 72, 75, 71, 60, 67, 104, 21, 88, 66, 63, 53, 76, 79, 30, 106, 122, 86, 47, 71, 96, 79, 89, 96, 79, 32, 53, 86, 36, 71, 13, 70, 126, 14, 21, 30, 104, 20, 101, 80, 93, 96, 63, 96, 102, 53, 85, 67, 66, 99, 64, 120, 52, 79, 129, 68, 78, 56, 97, 62, 93, 91, 107, 61, 57, 124, 116, 98, 97, 73, 57, 95, 109, 52, 79, 92, 44, 45, 80, 87, 29, 111, 61, 53, 75, 92, 77, 73, 72, 85, 59, 30, 45, 113, 65, 118, 14, 102, 106, 33, 87, 90, 95, 93, 81, 45, 70, 45, 32, 90, 96, 91, 86
              |71, 90, 33, 63, 58, 67, 59, 71, 60, 84, 31, 51, 55, 69, 31, 45, 28, 97, 57, 13, 33, 27, 29, 58, 47, 55, 30, 43, 67, 40, 29, 69, 46, 25, 69, 21, 76, 80, 42, 79, 77, 23, 11, 19, 24, 25, 56, 63, 97, 29, 81, 87, 30, 91, 43, 99, 71, 65, 78, 18, 83, 98, 66, 68, 71, 59, 58, 39, 35, 41, 90, 15, 88, 56, 43, 12, 36, 58, 33, 102, 51, 57, 62, 98, 90, 90, 82, 8, 41, 80, 105, 91, 54, 36, 97, 75, 80, 25, 56, 32, 58, 76, 46, 52, 53, 68, 59, 87, 29, 39, 70, 55, 80, 44, 21, 95, 86, 88, 47, 59, 36, 94, 49, 57, 62, 69, 97, 54, 5, 7, 96, 75, 90, 26, 52, 90, 84, 73, 57, 101, 80, 65, 55, 25, 48, 74, 60, 19, 41, 41, 60, 77, 102, 67, 100, 107, 35, 86, 31, 22, 78, 53, 89, 34, 100, 81, 90, 24, 39, 38, 46, 91, 72, 71, 30, 56, 28, 51, 84, 73, 33, 92, 11, 11, 16, 20, 71, 47, 40, 48, 52, 20, 87, 67, 41, 91, 47, 37, 69, 59, 92, 65, 72, 87, 100, 16, 58, 66, 74, 48, 41, 35, 64, 77, 40, 21, 81, 46, 76, 93, 47, 55, 65, 100, 43, 97, 41, 52, 100, 64, 60, 54, 76, 91, 63, 48, 78, 58, 97, 31, 88, 96, 52, 94, 53, 55, 79, 78, 91, 96, 59, 26, 90, 88, 113, 93, 53, 75, 103, 82, 30, 97, 78, 59, 71, 85, 45, 28, 99, 38, 69, 70, 50, 35, 88, 21, 55, 57, 25, 37, 98, 56, 95, 42, 103, 68, 31, 102, 98, 40, 56, 79, 33, 86, 14, 42, 61, 61, 51, 75
              |34, 59, 36, 53, 29, 65, 25, 42, 5, 20, 67, 40, 30, 31, 50, 70, 46, 62, 43, 61, 74, 38, 46, 13, 18, 50, 78, 67, 13, 56, 49, 42, 21, 72, 15, 49, 45, 36, 35, 13, 16, 44, 56, 51, 49, 43, 17, 52, 53, 62, 33, 33, 45, 26, 28, 49, 11, 5, 44, 57, 54, 36, 48, 4, 10, 12, 12, 62, 40, 46, 36, 73, 31, 41, 24, 64, 30, 54, 43, 39, 43, 40, 66, 55, 46, 52, 22, 58, 24, 38, 41, 62, 29, 82, 32, 10, 41, 62, 24, 65, 37, 65, 73, 53, 30, 56, 26, 45, 53, 75, 58, 17, 37, 27, 73, 35, 35, 35, 66, 38, 44, 29, 22, 24, 9, 25, 36, 22, 64, 64, 31, 24, 31, 49, 16, 27, 27, 54, 67, 36, 15, 10, 28, 67, 72, 61, 40, 47, 24, 77, 58, 13, 67, 29, 36, 42, 61, 33, 60, 47, 52, 29, 32, 53, 35, 28, 25, 54, 34, 30, 54, 45, 18, 21, 52, 15, 66, 52, 65, 12, 62, 43, 56, 60, 70, 51, 42, 37, 36, 29, 19, 49, 33, 55, 50, 25, 22, 31, 23, 17, 29, 46, 51, 65, 37, 51, 13, 40, 10, 52, 86, 52, 43, 33, 59, 54, 19, 57, 13, 67, 55, 48, 46, 37, 50, 34, 45, 54, 34, 6, 48, 70, 31, 26, 2, 21, 34, 8, 54, 34, 24, 69, 17, 33, 14, 56, 25, 26, 26, 38, 8, 40, 66, 54, 49, 30, 21, 24, 38, 47, 35, 38, 25, 26, 35, 19, 52, 54, 42, 29, 23, 7, 53, 50, 28, 62, 35, 10, 58, 31, 45, 11, 52, 58, 38, 56, 45, 39, 33, 87, 48, 14, 34, 28, 54, 38, 36, 47, 51, 18
              |27, 52, 20, 57, 17, 51, 32, 32, 13, 33, 50, 24, 16, 41, 33, 53, 29, 57, 28, 45, 57, 25, 29, 20, 10, 35, 61, 50, 15, 39, 32, 50, 6, 55, 29, 38, 37, 33, 33, 29, 25, 33, 44, 40, 41, 33, 4, 57, 52, 45, 32, 49, 28, 39, 11, 51, 19, 14, 37, 41, 46, 53, 35, 21, 20, 20, 7, 58, 23, 43, 40, 58, 37, 44, 18, 48, 20, 39, 26, 56, 44, 44, 51, 53, 44, 48, 30, 45, 13, 34, 57, 55, 33, 65, 48, 27, 36, 45, 30, 48, 24, 53, 55, 54, 15, 43, 33, 42, 47, 58, 45, 22, 34, 25, 57, 43, 50, 38, 64, 43, 27, 43, 22, 29, 20, 37, 53, 8, 51, 52, 47, 39, 48, 41, 2, 44, 43, 43, 51, 52, 32, 24, 33, 50, 55, 49, 27, 33, 13, 60, 61, 30, 62, 39, 48, 58, 56, 36, 43, 32, 43, 14, 38, 48, 51, 31, 42, 46, 17, 14, 37, 44, 20, 21, 35, 4, 50, 36, 55, 29, 56, 44, 44, 45, 55, 35, 32, 38, 19, 12, 3, 33, 49, 42, 48, 40, 5, 15, 35, 9, 46, 52, 40, 56, 54, 39, 6, 29, 23, 35, 69, 35, 50, 46, 42, 45, 36, 55, 30, 59, 54, 51, 52, 48, 48, 45, 28, 38, 49, 19, 34, 53, 44, 42, 15, 4, 31, 11, 52, 22, 41, 62, 0, 50, 16, 40, 41, 28, 40, 45, 15, 26, 57, 48, 66, 41, 5, 38, 54, 41, 23, 55, 27, 33, 45, 36, 35, 47, 48, 14, 35, 19, 37, 33, 45, 45, 20, 16, 50, 24, 48, 7, 50, 55, 52, 43, 38, 56, 49, 70, 33, 28, 26, 44, 42, 36, 24, 33, 35, 23
              |33, 58, 17, 52, 22, 54, 28, 38, 13, 36, 49, 27, 20, 38, 32, 54, 28, 63, 32, 42, 56, 21, 28, 17, 4, 38, 59, 51, 20, 40, 31, 46, 2, 53, 27, 33, 43, 39, 27, 31, 29, 28, 39, 35, 35, 27, 10, 52, 57, 44, 38, 48, 26, 43, 10, 57, 23, 17, 42, 39, 51, 54, 40, 22, 24, 18, 11, 52, 22, 38, 45, 55, 42, 39, 12, 45, 15, 42, 25, 57, 39, 39, 54, 59, 50, 54, 35, 41, 7, 40, 59, 60, 28, 64, 50, 28, 42, 43, 25, 47, 28, 57, 56, 48, 19, 47, 29, 48, 41, 57, 49, 18, 40, 19, 55, 48, 49, 44, 58, 38, 27, 46, 17, 25, 19, 34, 54, 13, 47, 47, 49, 37, 48, 35, 5, 45, 43, 48, 53, 55, 34, 22, 28, 49, 56, 53, 31, 29, 7, 60, 55, 31, 68, 36, 52, 61, 50, 41, 42, 29, 48, 18, 43, 42, 53, 36, 44, 40, 17, 12, 39, 50, 25, 26, 34, 9, 48, 38, 60, 29, 50, 50, 39, 42, 52, 32, 38, 32, 19, 15, 8, 30, 48, 46, 42, 43, 5, 13, 33, 14, 47, 48, 45, 61, 55, 34, 11, 34, 26, 37, 68, 35, 45, 44, 42, 40, 37, 50, 30, 64, 48, 45, 48, 52, 43, 50, 29, 40, 52, 19, 38, 55, 42, 44, 16, 5, 37, 11, 58, 17, 43, 67, 6, 50, 12, 43, 39, 33, 43, 50, 14, 22, 63, 54, 67, 46, 11, 37, 57, 47, 18, 55, 33, 29, 42, 38, 37, 41, 54, 11, 33, 22, 39, 33, 45, 43, 24, 14, 45, 18, 54, 8, 56, 49, 56, 47, 33, 57, 51, 69, 36, 31, 20, 44, 37, 30, 29, 37, 37, 28
              |51, 72, 61, 60, 51, 87, 36, 60, 30, 19, 92, 64, 53, 34, 76, 95, 71, 73, 65, 86, 100, 63, 71, 31, 43, 73, 103, 92, 33, 81, 74, 45, 46, 97, 22, 71, 61, 48, 53, 14, 25, 67, 79, 73, 70, 65, 42, 59, 61, 88, 44, 20, 70, 18, 53, 53, 28, 29, 59, 82, 69, 11, 68, 22, 26, 30, 36, 78, 66, 62, 41, 98, 35, 51, 47, 89, 53, 77, 69, 14, 55, 49, 89, 62, 55, 64, 28, 81, 49, 52, 16, 76, 42, 108, 9, 16, 55, 87, 38, 91, 59, 84, 97, 64, 54, 76, 37, 55, 72, 100, 78, 35, 50, 47, 99, 34, 23, 42, 80, 47, 70, 19, 41, 37, 28, 28, 12, 46, 87, 87, 8, 22, 11, 70, 41, 2, 14, 73, 90, 12, 11, 25, 41, 93, 97, 80, 62, 71, 49, 102, 67, 13, 77, 34, 26, 18, 78, 41, 86, 73, 69, 53, 35, 71, 11, 38, 1, 74, 59, 56, 78, 53, 34, 38, 77, 40, 92, 75, 82, 16, 80, 50, 80, 85, 96, 76, 60, 52, 61, 54, 44, 74, 18, 76, 66, 12, 47, 57, 27, 40, 5, 52, 70, 81, 11, 74, 37, 60, 22, 76, 111, 77, 49, 30, 84, 75, 9, 71, 14, 81, 68, 59, 52, 29, 65, 26, 70, 77, 17, 26, 70, 94, 29, 6, 28, 47, 48, 33, 61, 58, 1, 82, 43, 10, 36, 79, 18, 38, 17, 38, 31, 65, 81, 66, 24, 25, 45, 23, 15, 61, 60, 15, 36, 37, 36, 7, 76, 74, 42, 55, 27, 24, 77, 75, 9, 87, 58, 32, 78, 53, 47, 36, 61, 73, 23, 76, 65, 14, 10, 112, 71, 17, 57, 12, 77, 56, 57, 69, 74, 30
              |59, 80, 66, 59, 59, 95, 37, 68, 36, 27, 98, 71, 60, 33, 82, 102, 77, 81, 72, 91, 106, 68, 77, 35, 48, 81, 109, 99, 40, 88, 80, 43, 52, 103, 25, 74, 69, 56, 55, 22, 33, 71, 83, 76, 73, 69, 48, 58, 69, 94, 52, 15, 76, 25, 59, 60, 35, 35, 67, 88, 77, 4, 76, 28, 34, 34, 43, 79, 72, 63, 48, 103, 43, 51, 51, 94, 57, 84, 75, 9, 55, 49, 96, 69, 63, 72, 36, 85, 54, 60, 14, 84, 43, 113, 13, 22, 63, 93, 40, 97, 67, 92, 104, 64, 61, 84, 38, 63, 74, 107, 86, 38, 58, 50, 104, 41, 18, 50, 80, 46, 76, 25, 44, 39, 32, 28, 4, 53, 91, 91, 13, 21, 5, 72, 47, 6, 11, 81, 98, 13, 18, 29, 42, 98, 104, 88, 69, 76, 54, 109, 65, 19, 85, 33, 32, 18, 79, 49, 92, 78, 77, 60, 43, 72, 13, 46, 9, 77, 66, 62, 85, 61, 42, 46, 83, 47, 98, 82, 90, 21, 81, 57, 83, 90, 101, 81, 68, 53, 67, 61, 51, 79, 13, 83, 67, 19, 53, 62, 27, 47, 3, 50, 78, 89, 7, 78, 44, 68, 30, 83, 117, 84, 47, 27, 90, 78, 13, 71, 19, 89, 68, 58, 50, 36, 66, 33, 77, 85, 22, 31, 78, 101, 26, 14, 34, 53, 56, 38, 69, 63, 9, 90, 49, 2, 41, 87, 17, 46, 24, 45, 36, 70, 89, 74, 20, 32, 52, 22, 17, 69, 64, 7, 44, 38, 34, 15, 83, 76, 49, 60, 27, 31, 84, 82, 6, 93, 65, 37, 80, 57, 54, 42, 68, 73, 28, 84, 67, 9, 13, 118, 78, 25, 61, 9, 80, 57, 65, 77, 81, 38
              |20, 27, 57, 93, 32, 53, 64, 25, 42, 28, 77, 42, 35, 70, 63, 72, 63, 27, 39, 80, 84, 65, 62, 52, 50, 47, 89, 70, 28, 62, 64, 81, 47, 85, 53, 79, 23, 10, 72, 36, 25, 74, 84, 81, 82, 73, 37, 92, 15, 73, 9, 65, 61, 29, 47, 10, 28, 36, 20, 75, 27, 57, 36, 42, 30, 51, 37, 98, 56, 83, 6, 92, 11, 80, 58, 83, 61, 48, 58, 56, 82, 79, 57, 16, 9, 18, 19, 84, 54, 13, 52, 32, 68, 91, 44, 40, 15, 75, 64, 75, 34, 46, 74, 92, 37, 42, 66, 11, 88, 81, 42, 56, 11, 64, 89, 16, 68, 4, 104, 77, 57, 30, 59, 63, 49, 63, 58, 36, 90, 92, 43, 60, 57, 82, 42, 48, 57, 35, 61, 47, 40, 50, 67, 80, 73, 43, 35, 72, 54, 83, 97, 41, 31, 68, 27, 49, 97, 6, 71, 68, 29, 37, 11, 89, 46, 11, 45, 87, 51, 52, 56, 7, 22, 21, 65, 37, 78, 50, 40, 47, 97, 4, 84, 81, 88, 71, 25, 76, 50, 42, 39, 70, 63, 42, 88, 35, 45, 53, 61, 33, 51, 86, 33, 38, 54, 79, 36, 29, 31, 52, 93, 62, 83, 70, 64, 86, 48, 95, 44, 36, 93, 88, 86, 24, 88, 25, 53, 52, 37, 45, 41, 67, 68, 41, 40, 44, 12, 43, 15, 63, 46, 37, 41, 56, 51, 52, 59, 14, 30, 13, 46, 64, 37, 22, 60, 23, 38, 61, 46, 19, 64, 61, 15, 66, 73, 40, 55, 88, 12, 54, 61, 33, 52, 60, 55, 77, 37, 49, 91, 65, 8, 42, 14, 95, 34, 42, 79, 56, 44, 95, 44, 32, 67, 57, 82, 76, 31, 39, 50, 22
              |50, 73, 13, 47, 37, 60, 34, 53, 33, 57, 39, 35, 34, 44, 26, 49, 19, 79, 42, 26, 45, 4, 20, 31, 20, 44, 47, 46, 41, 37, 23, 48, 20, 40, 41, 13, 58, 58, 20, 51, 50, 7, 18, 14, 16, 7, 30, 47, 76, 35, 58, 61, 19, 64, 20, 76, 44, 38, 59, 24, 66, 70, 51, 40, 44, 32, 32, 36, 20, 26, 66, 37, 63, 36, 15, 28, 9, 48, 21, 74, 33, 37, 57, 78, 68, 71, 56, 20, 14, 58, 77, 75, 30, 52, 69, 47, 60, 32, 31, 38, 41, 66, 51, 39, 33, 56, 34, 66, 23, 49, 58, 28, 59, 18, 40, 69, 60, 64, 44, 38, 25, 67, 23, 31, 34, 44, 70, 30, 26, 26, 68, 49, 63, 17, 26, 63, 57, 59, 54, 73, 52, 37, 31, 36, 52, 63, 43, 10, 14, 51, 47, 50, 84, 43, 73, 80, 33, 62, 34, 15, 62, 32, 64, 26, 72, 57, 62, 21, 20, 15, 40, 69, 46, 47, 26, 30, 37, 42, 71, 46, 33, 69, 18, 24, 36, 18, 53, 27, 23, 27, 27, 15, 61, 55, 30, 63, 21, 14, 43, 34, 64, 46, 57, 74, 72, 13, 32, 48, 47, 40, 57, 30, 45, 52, 38, 20, 54, 37, 48, 78, 37, 39, 46, 73, 31, 71, 30, 43, 72, 36, 47, 54, 50, 63, 36, 22, 56, 30, 77, 4, 60, 81, 26, 66, 26, 47, 52, 54, 64, 71, 31, 8, 76, 70, 85, 66, 29, 48, 76, 63, 3, 70, 53, 34, 47, 57, 38, 23, 74, 13, 43, 43, 42, 29, 61, 30, 36, 30, 26, 10, 74, 28, 74, 36, 76, 56, 17, 74, 70, 57, 44, 52, 7, 59, 16, 22, 42, 47, 41, 49
              |85, 111, 56, 9, 74, 103, 33, 90, 54, 75, 80, 77, 72, 33, 70, 92, 63, 115, 83, 63, 85, 48, 64, 44, 48, 87, 84, 89, 68, 80, 66, 24, 54, 78, 47, 38, 95, 90, 26, 65, 72, 40, 45, 39, 33, 38, 62, 10, 108, 76, 88, 53, 63, 79, 59, 105, 68, 60, 95, 64, 104, 69, 92, 55, 67, 45, 60, 19, 64, 17, 92, 70, 88, 16, 41, 64, 42, 91, 65, 74, 14, 18, 101, 110, 101, 106, 79, 49, 48, 92, 80, 113, 28, 90, 76, 60, 94, 73, 32, 80, 80, 108, 94, 4, 71, 98, 31, 99, 26, 90, 100, 40, 91, 33, 76, 91, 50, 92, 16, 21, 68, 82, 37, 33, 48, 39, 68, 65, 51, 49, 75, 45, 61, 31, 57, 67, 55, 100, 98, 79, 64, 48, 29, 76, 95, 104, 83, 49, 48, 92, 4, 61, 120, 33, 90, 84, 22, 90, 77, 58, 101, 70, 89, 21, 78, 84, 68, 32, 62, 56, 83, 100, 73, 76, 69, 61, 78, 85, 112, 54, 25, 99, 46, 60, 71, 59, 90, 21, 65, 66, 61, 56, 54, 97, 15, 75, 57, 55, 40, 66, 66, 17, 97, 113, 73, 44, 61, 87, 67, 83, 95, 74, 19, 40, 82, 35, 58, 10, 57, 117, 8, 9, 17, 92, 13, 88, 73, 87, 83, 51, 89, 98, 40, 72, 55, 57, 88, 53, 109, 45, 66, 120, 58, 65, 45, 90, 49, 82, 79, 95, 49, 52, 115, 106, 85, 85, 63, 44, 82, 99, 46, 66, 81, 31, 32, 67, 81, 28, 99, 53, 40, 63, 85, 72, 60, 70, 76, 47, 31, 37, 101, 54, 107, 14, 89, 98, 28, 74, 77, 95, 86, 68, 38, 57, 43, 23, 81, 88, 84, 74
              |75, 101, 54, 11, 66, 99, 19, 82, 42, 59, 83, 72, 65, 15, 70, 93, 63, 105, 77, 69, 89, 48, 64, 32, 41, 83, 90, 90, 56, 80, 67, 5, 47, 84, 31, 44, 86, 78, 25, 49, 58, 44, 53, 46, 40, 42, 53, 10, 96, 79, 76, 34, 63, 63, 54, 92, 54, 48, 85, 68, 95, 50, 85, 41, 53, 32, 50, 35, 62, 24, 79, 78, 74, 9, 35, 71, 39, 87, 64, 55, 14, 7, 98, 98, 89, 95, 65, 56, 43, 81, 61, 104, 17, 96, 58, 44, 83, 76, 20, 83, 73, 102, 95, 18, 65, 92, 17, 88, 37, 93, 95, 29, 80, 28, 82, 76, 31, 78, 34, 7, 67, 65, 28, 21, 34, 21, 49, 57, 60, 59, 57, 27, 42, 39, 48, 49, 36, 93, 96, 60, 47, 33, 17, 81, 96, 98, 77, 53, 43, 96, 18, 44, 110, 16, 73, 66, 37, 76, 79, 60, 93, 64, 75, 33, 59, 71, 50, 41, 58, 52, 81, 88, 61, 64, 70, 51, 82, 82, 105, 38, 39, 86, 54, 66, 78, 62, 82, 18, 62, 60, 53, 59, 35, 91, 25, 58, 50, 52, 23, 56, 48, 3, 90, 106, 54, 50, 51, 79, 52, 81, 101, 74, 0, 21, 82, 44, 41, 26, 41, 108, 23, 12, 3, 75, 23, 72, 71, 84, 66, 38, 83, 97, 21, 54, 43, 50, 77, 41, 97, 44, 48, 111, 50, 46, 34, 87, 31, 69, 62, 80, 37, 52, 107, 96, 66, 69, 55, 26, 63, 89, 45, 47, 68, 17, 13, 50, 79, 38, 84, 49, 23, 49, 83, 72, 42, 74, 70, 36, 42, 35, 87, 44, 95, 30, 72, 92, 34, 55, 59, 101, 81, 53, 37, 38, 51, 23, 74, 83, 81, 61
              |47, 58, 28, 84, 37, 31, 68, 43, 55, 72, 10, 25, 34, 78, 11, 12, 18, 65, 28, 23, 17, 33, 17, 60, 45, 22, 23, 9, 54, 5, 14, 84, 40, 19, 70, 43, 47, 56, 57, 71, 64, 40, 39, 43, 48, 42, 43, 84, 68, 9, 59, 91, 18, 79, 32, 74, 59, 56, 50, 19, 51, 95, 34, 64, 60, 60, 48, 69, 20, 63, 69, 30, 69, 73, 47, 25, 42, 23, 18, 98, 70, 74, 26, 70, 63, 61, 67, 37, 41, 54, 99, 58, 66, 25, 90, 69, 53, 12, 65, 8, 32, 40, 14, 76, 33, 34, 69, 60, 56, 16, 35, 59, 56, 53, 24, 77, 91, 66, 77, 74, 16, 82, 56, 65, 61, 76, 96, 39, 40, 43, 88, 79, 90, 50, 44, 86, 85, 40, 21, 94, 74, 65, 66, 15, 15, 39, 32, 31, 41, 18, 84, 72, 69, 76, 85, 100, 65, 65, 6, 23, 46, 33, 70, 61, 93, 61, 85, 52, 26, 31, 12, 65, 56, 53, 11, 45, 12, 18, 49, 71, 64, 68, 39, 26, 26, 22, 43, 64, 24, 31, 41, 24, 90, 33, 66, 81, 38, 31, 74, 45, 89, 83, 40, 53, 96, 38, 48, 38, 64, 15, 27, 8, 81, 85, 3, 49, 79, 73, 72, 59, 73, 76, 83, 84, 67, 82, 15, 17, 89, 61, 28, 18, 83, 84, 58, 39, 54, 53, 69, 37, 83, 62, 42, 92, 54, 20, 82, 59, 79, 76, 56, 29, 56, 58, 108, 78, 40, 79, 95, 53, 36, 97, 60, 69, 82, 78, 12, 56, 78, 34, 74, 61, 16, 10, 87, 16, 31, 56, 55, 46, 75, 49, 66, 70, 91, 34, 52, 98, 91, 29, 24, 69, 44, 86, 40, 59, 35, 29, 18, 60
              |26, 24, 44, 99, 27, 12, 75, 17, 54, 59, 44, 22, 28, 84, 38, 35, 42, 31, 16, 56, 50, 53, 41, 63, 52, 14, 56, 34, 44, 30, 40, 93, 46, 54, 70, 68, 18, 32, 72, 62, 51, 63, 68, 69, 72, 64, 40, 99, 37, 43, 36, 89, 41, 64, 39, 45, 49, 51, 21, 51, 18, 88, 8, 60, 51, 63, 45, 93, 37, 82, 45, 64, 48, 87, 58, 58, 57, 11, 38, 89, 85, 87, 17, 39, 34, 29, 50, 67, 51, 28, 87, 23, 76, 56, 78, 63, 26, 46, 73, 42, 19, 9, 37, 94, 28, 1, 76, 31, 80, 45, 2, 65, 31, 66, 59, 55, 91, 43, 100, 86, 34, 66, 65, 73, 62, 80, 88, 36, 71, 73, 77, 80, 85, 74, 45, 78, 82, 6, 22, 82, 66, 65, 76, 50, 35, 6, 16, 57, 51, 46, 102, 66, 35, 82, 66, 86, 90, 42, 40, 49, 13, 29, 49, 83, 80, 41, 75, 77, 37, 43, 23, 36, 42, 38, 39, 42, 47, 17, 15, 68, 89, 40, 67, 58, 60, 50, 17, 79, 34, 33, 40, 51, 88, 2, 86, 68, 43, 43, 78, 39, 81, 95, 8, 18, 87, 65, 44, 16, 54, 21, 57, 34, 93, 88, 32, 75, 74, 93, 67, 24, 93, 92, 95, 64, 87, 63, 29, 18, 74, 60, 10, 28, 86, 72, 55, 42, 31, 53, 38, 54, 75, 27, 43, 86, 59, 15, 81, 40, 64, 53, 58, 50, 21, 25, 95, 60, 38, 80, 82, 23, 54, 91, 42, 76, 88, 69, 24, 80, 53, 46, 78, 53, 19, 34, 82, 50, 23, 59, 81, 61, 48, 50, 35, 92, 73, 1, 73, 89, 78, 60, 13, 59, 61, 82, 67, 76, 20, 10, 18, 46
              |91, 117, 59, 20, 80, 106, 42, 96, 62, 84, 79, 81, 78, 44, 71, 92, 64, 122, 87, 62, 83, 50, 65, 53, 55, 90, 82, 90, 75, 82, 68, 36, 59, 76, 57, 38, 101, 97, 32, 75, 81, 41, 43, 38, 33, 40, 69, 21, 116, 76, 96, 64, 65, 89, 64, 114, 76, 68, 101, 63, 110, 80, 96, 65, 75, 54, 67, 13, 66, 21, 101, 67, 97, 26, 47, 62, 46, 94, 67, 85, 23, 28, 103, 117, 108, 113, 88, 46, 53, 99, 91, 119, 37, 88, 87, 69, 101, 73, 41, 80, 85, 112, 94, 13, 76, 102, 41, 106, 25, 89, 104, 49, 98, 40, 73, 100, 61, 100, 6, 31, 71, 91, 44, 42, 56, 49, 79, 71, 47, 45, 86, 56, 72, 31, 63, 77, 66, 105, 100, 89, 73, 57, 38, 75, 95, 108, 88, 50, 53, 91, 13, 71, 127, 44, 99, 95, 17, 98, 77, 59, 106, 76, 97, 20, 88, 92, 79, 29, 65, 60, 85, 108, 81, 83, 70, 68, 77, 88, 117, 64, 19, 107, 44, 58, 68, 59, 96, 28, 69, 71, 67, 57, 65, 101, 17, 85, 62, 59, 50, 73, 77, 29, 102, 119, 84, 43, 68, 92, 76, 86, 93, 75, 30, 51, 83, 32, 69, 9, 67, 122, 11, 19, 29, 101, 16, 98, 76, 89, 94, 60, 93, 99, 51, 82, 64, 63, 96, 61, 117, 48, 77, 125, 65, 76, 52, 93, 60, 90, 89, 104, 58, 54, 121, 113, 96, 95, 69, 55, 92, 105, 49, 77, 89, 41, 43, 77, 84, 25, 108, 57, 50, 72, 88, 74, 71, 69, 81, 55, 27, 42, 110, 62, 114, 11, 99, 102, 30, 85, 88, 92, 90, 78, 41, 68, 42, 28, 86, 92, 87, 82
              |49, 69, 12, 61, 36, 50, 48, 49, 42, 64, 25, 30, 33, 58, 13, 35, 7, 75, 36, 14, 31, 11, 8, 43, 29, 35, 33, 32, 46, 24, 10, 62, 26, 26, 53, 20, 55, 58, 34, 60, 56, 16, 19, 20, 25, 18, 34, 61, 75, 20, 59, 74, 9, 71, 22, 77, 50, 45, 56, 11, 61, 81, 45, 50, 51, 43, 38, 46, 13, 39, 68, 26, 67, 50, 27, 17, 21, 39, 12, 85, 47, 52, 46, 76, 68, 69, 61, 18, 23, 58, 87, 70, 45, 38, 79, 57, 58, 18, 44, 24, 37, 57, 37, 52, 31, 48, 48, 65, 33, 35, 50, 41, 58, 32, 27, 73, 73, 66, 54, 52, 15, 74, 36, 45, 45, 57, 81, 32, 23, 25, 77, 62, 75, 27, 32, 73, 69, 53, 42, 83, 62, 49, 45, 22, 38, 55, 39, 8, 23, 37, 61, 59, 80, 56, 79, 89, 43, 64, 20, 1, 57, 31, 68, 37, 82, 59, 72, 29, 17, 17, 29, 68, 50, 49, 13, 35, 23, 33, 64, 57, 41, 70, 18, 14, 24, 4, 49, 41, 18, 26, 31, 2, 73, 47, 42, 72, 26, 16, 56, 38, 75, 61, 51, 67, 83, 16, 38, 44, 54, 30, 43, 18, 59, 66, 25, 27, 64, 49, 58, 72, 49, 53, 61, 79, 44, 77, 21, 33, 80, 46, 40, 41, 64, 72, 45, 27, 56, 39, 76, 16, 71, 75, 31, 78, 37, 37, 65, 56, 71, 75, 41, 7, 70, 67, 96, 72, 32, 61, 85, 60, 14, 82, 57, 48, 61, 66, 27, 33, 77, 17, 56, 51, 32, 17, 72, 16, 33, 40, 33, 24, 76, 36, 73, 47, 83, 48, 29, 85, 80, 43, 36, 59, 22, 71, 18, 36, 39, 40, 32, 54
              |76, 102, 55, 11, 67, 100, 19, 83, 42, 60, 84, 73, 66, 15, 71, 94, 64, 106, 78, 70, 90, 49, 65, 32, 42, 84, 91, 91, 56, 81, 68, 5, 48, 84, 31, 45, 87, 79, 25, 50, 59, 45, 54, 47, 41, 43, 54, 10, 97, 80, 77, 34, 64, 63, 55, 93, 55, 48, 86, 69, 96, 50, 86, 42, 54, 33, 51, 36, 63, 25, 79, 79, 74, 10, 36, 72, 40, 88, 65, 55, 14, 8, 99, 98, 89, 96, 65, 57, 44, 82, 62, 105, 18, 97, 58, 44, 84, 77, 21, 84, 74, 103, 96, 18, 65, 93, 18, 88, 38, 94, 96, 30, 81, 29, 83, 77, 31, 79, 34, 8, 68, 65, 29, 21, 35, 21, 49, 58, 61, 60, 58, 28, 42, 39, 49, 49, 37, 94, 97, 60, 48, 34, 18, 81, 97, 99, 77, 54, 44, 97, 18, 45, 110, 16, 73, 66, 38, 77, 80, 61, 93, 65, 75, 33, 60, 72, 51, 42, 59, 53, 82, 89, 62, 65, 71, 52, 83, 83, 106, 38, 40, 87, 55, 67, 79, 63, 83, 19, 63, 61, 54, 60, 35, 92, 26, 59, 51, 53, 23, 57, 48, 2, 91, 106, 54, 51, 51, 80, 53, 82, 102, 75, 1, 21, 83, 45, 41, 27, 41, 109, 24, 13, 2, 76, 24, 73, 72, 85, 66, 38, 84, 98, 21, 55, 43, 51, 78, 42, 98, 45, 49, 112, 51, 46, 35, 88, 31, 70, 63, 81, 38, 53, 108, 97, 66, 70, 56, 27, 64, 90, 46, 47, 69, 18, 13, 50, 80, 39, 85, 50, 23, 50, 84, 73, 42, 75, 71, 36, 43, 36, 88, 45, 96, 30, 72, 93, 35, 55, 59, 102, 82, 54, 38, 39, 51, 24, 74, 84, 82, 62
              |67, 90, 69, 51, 66, 102, 34, 76, 40, 37, 101, 77, 66, 27, 85, 106, 80, 91, 79, 92, 109, 69, 80, 36, 50, 87, 111, 103, 47, 92, 83, 35, 55, 105, 26, 73, 78, 65, 52, 30, 42, 70, 82, 75, 71, 68, 54, 50, 79, 97, 62, 6, 79, 36, 63, 71, 43, 41, 76, 89, 86, 12, 84, 33, 41, 36, 48, 74, 75, 59, 59, 104, 53, 45, 52, 95, 58, 91, 78, 16, 50, 43, 103, 80, 73, 82, 46, 85, 56, 69, 23, 94, 40, 116, 24, 28, 72, 95, 37, 100, 74, 100, 109, 58, 67, 92, 34, 73, 71, 110, 94, 38, 67, 49, 106, 52, 9, 60, 74, 40, 80, 37, 44, 37, 34, 24, 10, 59, 90, 90, 24, 18, 7, 70, 51, 17, 10, 89, 104, 24, 26, 31, 39, 101, 109, 96, 76, 76, 56, 113, 58, 26, 95, 28, 44, 28, 75, 59, 95, 80, 86, 66, 54, 68, 24, 56, 20, 74, 69, 65, 90, 71, 50, 54, 86, 52, 101, 88, 99, 24, 77, 68, 83, 91, 102, 83, 76, 49, 72, 66, 56, 80, 6, 91, 62, 30, 57, 65, 24, 54, 14, 42, 86, 98, 16, 77, 49, 75, 38, 88, 120, 88, 40, 19, 95, 76, 18, 66, 25, 99, 62, 52, 42, 47, 61, 44, 81, 90, 33, 34, 85, 107, 20, 25, 38, 57, 65, 42, 80, 64, 19, 100, 53, 9, 42, 93, 14, 55, 35, 56, 39, 72, 98, 84, 26, 43, 57, 19, 27, 78, 65, 7, 53, 34, 27, 25, 88, 72, 60, 63, 24, 38, 90, 85, 10, 95, 71, 39, 77, 57, 65, 46, 79, 68, 40, 92, 65, 16, 25, 121, 85, 34, 60, 9, 79, 54, 72, 84, 87, 47
              |94, 120, 64, 16, 83, 111, 42, 99, 63, 84, 86, 85, 81, 42, 77, 98, 70, 124, 91, 68, 90, 55, 71, 54, 57, 95, 89, 96, 77, 87, 73, 32, 62, 83, 56, 44, 104, 99, 35, 74, 82, 47, 50, 44, 39, 45, 71, 17, 118, 82, 97, 61, 70, 88, 68, 115, 77, 70, 104, 70, 113, 77, 100, 65, 76, 54, 69, 20, 71, 25, 102, 74, 97, 25, 50, 69, 50, 99, 72, 82, 24, 27, 108, 119, 110, 115, 88, 53, 56, 101, 89, 122, 37, 95, 85, 69, 103, 79, 42, 86, 89, 116, 100, 13, 80, 106, 41, 108, 31, 96, 109, 50, 101, 42, 80, 101, 58, 101, 13, 30, 76, 91, 46, 43, 57, 48, 76, 74, 54, 52, 84, 54, 69, 37, 66, 76, 64, 108, 105, 87, 73, 57, 38, 81, 101, 113, 92, 56, 56, 98, 9, 70, 129, 42, 99, 93, 24, 99, 83, 64, 110, 79, 98, 26, 86, 94, 77, 36, 70, 64, 91, 109, 83, 85, 76, 70, 84, 93, 121, 63, 26, 109, 51, 65, 75, 66, 99, 30, 73, 75, 70, 63, 62, 105, 22, 84, 65, 64, 49, 75, 75, 25, 106, 122, 81, 49, 70, 95, 76, 91, 100, 81, 27, 48, 89, 39, 67, 14, 66, 126, 14, 18, 25, 101, 20, 98, 81, 94, 92, 61, 97, 104, 48, 81, 65, 66, 98, 62, 119, 53, 75, 129, 67, 73, 54, 98, 58, 91, 88, 104, 59, 59, 124, 115, 93, 94, 72, 53, 90, 108, 53, 74, 90, 41, 40, 76, 89, 32, 108, 61, 49, 73, 93, 79, 69, 76, 85, 57, 34, 45, 111, 64, 116, 17, 98, 106, 35, 82, 86, 99, 94, 78, 46, 66, 48, 31, 90, 97, 92, 83
              |26, 44, 18, 75, 15, 30, 53, 25, 36, 50, 31, 4, 12, 63, 17, 31, 19, 50, 11, 35, 39, 28, 17, 42, 29, 14, 44, 28, 32, 18, 18, 70, 23, 39, 51, 43, 30, 36, 48, 50, 42, 37, 43, 43, 47, 38, 22, 75, 50, 28, 37, 72, 17, 57, 15, 54, 37, 35, 31, 30, 36, 75, 20, 43, 38, 42, 28, 67, 13, 56, 47, 46, 47, 62, 34, 38, 32, 18, 14, 77, 61, 63, 29, 52, 44, 44, 44, 43, 27, 34, 78, 45, 53, 47, 68, 49, 34, 29, 50, 30, 12, 35, 34, 69, 11, 25, 54, 41, 54, 38, 27, 43, 35, 41, 43, 55, 73, 45, 75, 62, 11, 60, 41, 50, 43, 59, 75, 17, 48, 50, 67, 61, 70, 48, 25, 66, 66, 28, 28, 72, 53, 46, 52, 34, 33, 31, 14, 32, 27, 40, 77, 51, 55, 61, 63, 78, 64, 43, 25, 25, 32, 11, 48, 58, 71, 39, 64, 52, 12, 17, 14, 45, 33, 31, 19, 24, 32, 13, 40, 52, 64, 47, 43, 36, 42, 27, 25, 54, 9, 10, 20, 27, 71, 24, 60, 59, 20, 18, 57, 24, 68, 72, 27, 43, 75, 40, 27, 19, 42, 12, 49, 16, 69, 68, 21, 50, 59, 68, 52, 47, 67, 67, 72, 62, 61, 60, 8, 15, 67, 42, 16, 31, 66, 62, 38, 20, 34, 34, 51, 29, 62, 50, 23, 72, 37, 18, 63, 37, 57, 55, 38, 25, 45, 42, 86, 56, 19, 61, 74, 36, 29, 77, 38, 54, 67, 57, 13, 54, 57, 21, 57, 40, 14, 15, 67, 31, 9, 38, 56, 36, 54, 30, 48, 67, 68, 25, 48, 77, 69, 51, 13, 48, 36, 67, 43, 51, 15, 16, 12, 38
              |64, 88, 31, 29, 52, 78, 25, 68, 37, 61, 56, 53, 49, 33, 45, 67, 38, 94, 59, 40, 62, 23, 39, 30, 27, 62, 62, 64, 49, 55, 42, 33, 31, 55, 38, 16, 73, 70, 7, 53, 57, 16, 25, 17, 12, 14, 41, 29, 89, 52, 69, 53, 38, 67, 35, 87, 51, 43, 73, 40, 81, 66, 68, 42, 50, 31, 41, 21, 39, 8, 75, 50, 71, 20, 19, 42, 18, 66, 40, 71, 16, 21, 76, 90, 81, 85, 63, 28, 25, 71, 75, 91, 20, 68, 69, 48, 73, 49, 22, 56, 57, 84, 69, 21, 48, 74, 25, 79, 12, 66, 76, 26, 71, 14, 54, 76, 52, 74, 27, 23, 43, 70, 20, 23, 34, 35, 66, 43, 32, 31, 68, 42, 58, 11, 36, 61, 52, 76, 73, 72, 53, 36, 21, 53, 70, 80, 60, 25, 25, 68, 29, 50, 99, 32, 77, 79, 20, 72, 52, 33, 78, 47, 72, 11, 71, 66, 61, 15, 37, 32, 58, 81, 55, 57, 44, 40, 54, 60, 88, 44, 20, 80, 26, 38, 49, 35, 68, 11, 40, 43, 39, 32, 54, 72, 11, 65, 34, 31, 35, 45, 61, 30, 74, 90, 69, 22, 41, 64, 52, 58, 73, 49, 29, 42, 57, 16, 51, 19, 47, 94, 18, 21, 30, 79, 13, 76, 48, 62, 74, 37, 64, 73, 41, 63, 40, 35, 68, 35, 89, 20, 59, 97, 37, 62, 27, 65, 46, 64, 67, 79, 33, 27, 92, 85, 82, 72, 41, 41, 75, 77, 21, 65, 63, 25, 35, 57, 56, 13, 83, 29, 35, 48, 61, 47, 56, 46, 52, 31, 18, 13, 84, 35, 87, 18, 79, 74, 6, 71, 70, 72, 61, 55, 13, 54, 22, 6, 58, 64, 60, 57
              |38, 57, 9, 67, 25, 39, 49, 37, 37, 57, 25, 17, 22, 59, 9, 31, 6, 63, 24, 23, 33, 17, 5, 41, 26, 24, 36, 28, 38, 17, 7, 65, 22, 30, 51, 30, 43, 47, 39, 54, 48, 26, 31, 31, 35, 27, 27, 67, 63, 21, 48, 72, 4, 63, 14, 66, 43, 39, 44, 18, 49, 77, 33, 45, 44, 41, 31, 56, 1, 47, 58, 35, 57, 55, 28, 26, 24, 28, 1, 81, 53, 56, 37, 65, 56, 57, 52, 30, 22, 46, 82, 58, 47, 40, 73, 52, 46, 20, 46, 24, 25, 46, 33, 60, 20, 37, 50, 53, 43, 34, 39, 40, 47, 35, 33, 64, 72, 56, 64, 56, 4, 66, 37, 46, 43, 57, 78, 23, 35, 37, 72, 60, 72, 37, 26, 69, 67, 41, 34, 77, 57, 46, 47, 26, 34, 43, 27, 19, 22, 36, 68, 54, 68, 57, 71, 83, 53, 54, 19, 12, 45, 20, 58, 47, 76, 49, 67, 40, 8, 12, 19, 57, 41, 40, 10, 28, 25, 22, 53, 53, 52, 59, 30, 24, 31, 14, 37, 46, 7, 16, 24, 14, 72, 35, 50, 65, 20, 12, 55, 30, 71, 65, 39, 55, 79, 27, 31, 32, 47, 19, 44, 11, 63, 66, 19, 37, 61, 58, 54, 60, 57, 59, 65, 70, 52, 68, 9, 23, 73, 42, 28, 34, 64, 67, 40, 21, 45, 35, 64, 19, 66, 63, 25, 74, 35, 26, 63, 46, 64, 65, 38, 13, 58, 55, 91, 64, 23, 60, 79, 49, 19, 79, 47, 50, 63, 61, 17, 43, 67, 15, 55, 44, 21, 9, 69, 21, 21, 38, 44, 28, 65, 31, 61, 56, 76, 37, 37, 81, 74, 45, 24, 53, 27, 68, 30, 42, 27, 28, 21, 45
              |37, 63, 26, 47, 28, 63, 20, 43, 6, 31, 58, 36, 27, 29, 42, 64, 37, 67, 40, 51, 66, 28, 37, 8, 8, 47, 69, 61, 19, 49, 40, 38, 12, 62, 17, 37, 48, 41, 25, 24, 25, 33, 45, 40, 38, 32, 15, 46, 60, 54, 39, 38, 36, 37, 20, 57, 20, 12, 47, 47, 56, 45, 47, 13, 19, 8, 11, 52, 32, 36, 44, 63, 40, 34, 13, 54, 19, 51, 35, 48, 35, 34, 63, 61, 52, 57, 32, 47, 14, 43, 51, 66, 22, 73, 42, 20, 45, 53, 18, 57, 36, 65, 66, 45, 27, 55, 22, 50, 42, 67, 57, 10, 42, 17, 64, 45, 39, 43, 57, 32, 37, 40, 12, 18, 9, 25, 45, 19, 53, 53, 41, 27, 38, 38, 10, 36, 33, 55, 63, 47, 25, 13, 22, 58, 66, 61, 39, 36, 14, 69, 51, 23, 72, 27, 47, 53, 51, 41, 52, 38, 54, 26, 41, 42, 45, 36, 36, 43, 26, 22, 48, 51, 25, 27, 43, 13, 58, 47, 66, 20, 51, 50, 45, 50, 60, 41, 43, 29, 29, 24, 15, 38, 38, 54, 41, 36, 15, 22, 23, 17, 38, 41, 52, 67, 46, 40, 12, 40, 21, 47, 77, 45, 38, 34, 52, 43, 28, 48, 21, 70, 46, 41, 41, 48, 41, 45, 39, 49, 46, 9, 46, 65, 32, 36, 9, 14, 40, 4, 60, 23, 34, 72, 12, 41, 4, 52, 30, 33, 37, 48, 4, 30, 68, 58, 59, 41, 17, 27, 49, 51, 25, 45, 32, 22, 33, 30, 46, 43, 52, 20, 23, 17, 49, 42, 35, 52, 32, 4, 47, 20, 53, 6, 58, 48, 50, 55, 34, 48, 43, 78, 45, 25, 23, 34, 42, 29, 35, 45, 46, 26
              |26, 46, 51, 75, 32, 64, 46, 35, 27, 7, 77, 45, 34, 50, 62, 77, 60, 47, 44, 76, 85, 57, 59, 35, 38, 53, 90, 74, 16, 64, 61, 62, 37, 84, 33, 69, 36, 22, 57, 16, 7, 64, 75, 71, 70, 63, 28, 74, 35, 74, 18, 44, 58, 11, 41, 29, 13, 20, 34, 72, 43, 37, 45, 23, 13, 34, 25, 84, 53, 68, 15, 89, 10, 63, 45, 79, 50, 55, 55, 37, 65, 62, 67, 36, 29, 37, 2, 77, 43, 26, 35, 50, 51, 93, 26, 21, 29, 74, 47, 76, 38, 60, 79, 75, 36, 53, 48, 29, 75, 84, 54, 39, 24, 49, 87, 13, 47, 16, 89, 59, 55, 14, 44, 46, 31, 44, 38, 31, 83, 83, 25, 40, 37, 70, 31, 28, 37, 48, 69, 29, 19, 31, 50, 80, 78, 56, 40, 65, 43, 86, 80, 21, 51, 49, 17, 34, 83, 15, 71, 63, 44, 35, 11, 75, 28, 12, 25, 75, 47, 46, 59, 27, 13, 16, 64, 28, 78, 55, 57, 27, 84, 24, 75, 76, 85, 66, 35, 60, 47, 38, 31, 65, 43, 52, 73, 16, 37, 47, 42, 25, 31, 67, 46, 55, 35, 70, 25, 37, 12, 57, 96, 62, 64, 49, 67, 75, 28, 79, 24, 55, 77, 70, 67, 16, 72, 14, 54, 57, 22, 28, 48, 74, 48, 21, 24, 36, 22, 28, 36, 53, 25, 56, 32, 36, 36, 58, 39, 13, 12, 16, 30, 57, 55, 40, 43, 10, 31, 41, 30, 35, 54, 41, 11, 48, 54, 20, 58, 76, 20, 46, 42, 16, 57, 60, 34, 75, 38, 33, 80, 52, 23, 29, 35, 80, 22, 53, 67, 37, 26, 98, 50, 11, 55, 36, 73, 61, 36, 47, 54, 9
              |23, 47, 41, 67, 24, 59, 39, 32, 17, 12, 69, 37, 26, 44, 53, 69, 50, 49, 38, 66, 76, 47, 50, 27, 28, 46, 81, 67, 7, 56, 52, 55, 27, 75, 27, 59, 34, 22, 48, 14, 4, 54, 65, 61, 60, 53, 18, 67, 39, 65, 19, 42, 48, 19, 31, 35, 3, 11, 32, 62, 42, 39, 41, 16, 4, 26, 15, 75, 43, 59, 22, 79, 17, 55, 36, 70, 40, 49, 46, 41, 57, 54, 61, 41, 32, 39, 9, 67, 33, 26, 40, 50, 43, 84, 31, 16, 29, 65, 39, 67, 32, 57, 72, 67, 28, 49, 40, 31, 65, 76, 50, 31, 24, 40, 78, 22, 45, 21, 80, 52, 46, 22, 35, 38, 23, 38, 40, 22, 73, 73, 29, 36, 37, 61, 21, 30, 35, 45, 63, 35, 18, 24, 42, 70, 71, 53, 34, 55, 33, 78, 72, 18, 54, 43, 26, 40, 74, 19, 62, 53, 42, 27, 18, 66, 33, 14, 27, 65, 37, 36, 52, 31, 6, 10, 54, 18, 69, 48, 55, 22, 74, 29, 65, 66, 76, 57, 32, 51, 38, 29, 22, 55, 41, 48, 64, 21, 27, 37, 36, 15, 33, 60, 42, 54, 39, 60, 15, 32, 6, 49, 87, 53, 57, 45, 59, 65, 26, 71, 21, 55, 68, 62, 60, 26, 64, 24, 45, 50, 29, 20, 43, 67, 43, 25, 15, 26, 22, 19, 40, 43, 27, 57, 22, 37, 27, 52, 35, 13, 19, 25, 21, 47, 55, 41, 49, 20, 21, 36, 36, 35, 44, 43, 11, 40, 48, 21, 50, 66, 29, 36, 36, 8, 50, 51, 34, 66, 31, 24, 70, 42, 31, 19, 38, 71, 31, 49, 57, 41, 31, 89, 43, 10, 45, 35, 63, 52, 30, 41, 47, 4
              |54, 71, 72, 74, 58, 91, 50, 63, 42, 22, 101, 70, 60, 48, 85, 103, 82, 71, 71, 97, 109, 75, 81, 44, 55, 79, 113, 100, 40, 89, 84, 59, 57, 107, 36, 84, 63, 49, 67, 23, 30, 80, 92, 86, 83, 78, 50, 73, 58, 97, 45, 31, 80, 16, 63, 48, 35, 38, 60, 93, 70, 16, 72, 34, 33, 43, 46, 92, 75, 76, 38, 109, 33, 65, 59, 100, 66, 82, 78, 13, 69, 64, 94, 58, 53, 62, 30, 94, 60, 53, 8, 76, 56, 117, 5, 27, 56, 97, 52, 100, 65, 87, 105, 79, 61, 80, 51, 54, 86, 109, 82, 48, 51, 60, 109, 29, 35, 40, 94, 61, 79, 14, 54, 51, 41, 42, 18, 54, 100, 100, 6, 36, 22, 83, 51, 14, 27, 76, 96, 4, 22, 38, 55, 103, 104, 83, 67, 83, 60, 111, 81, 24, 74, 48, 18, 6, 92, 40, 95, 84, 71, 60, 33, 84, 4, 39, 13, 88, 69, 66, 85, 51, 39, 42, 87, 49, 102, 82, 83, 29, 93, 47, 92, 96, 107, 87, 63, 66, 70, 62, 53, 85, 30, 80, 80, 12, 57, 67, 41, 48, 15, 65, 73, 81, 12, 87, 46, 64, 30, 83, 120, 86, 63, 43, 92, 89, 23, 85, 27, 81, 82, 73, 65, 22, 79, 20, 78, 84, 7, 38, 75, 100, 42, 11, 38, 57, 49, 44, 58, 70, 15, 81, 52, 19, 49, 85, 32, 40, 15, 33, 43, 77, 81, 65, 16, 21, 54, 37, 2, 61, 72, 21, 38, 51, 50, 17, 84, 87, 36, 66, 41, 33, 84, 84, 22, 97, 64, 45, 91, 66, 42, 47, 58, 87, 13, 80, 78, 13, 4, 122, 77, 24, 70, 25, 89, 69, 62, 74, 81, 35
              |49, 70, 9, 54, 35, 54, 41, 50, 36, 60, 32, 31, 33, 51, 19, 42, 12, 76, 38, 20, 38, 4, 14, 36, 23, 39, 40, 39, 43, 30, 16, 55, 22, 33, 47, 16, 55, 57, 27, 55, 52, 11, 17, 16, 20, 12, 31, 54, 74, 27, 57, 67, 13, 66, 19, 76, 46, 40, 56, 17, 63, 75, 47, 44, 47, 37, 34, 41, 15, 33, 66, 32, 64, 43, 21, 23, 14, 43, 15, 79, 40, 44, 51, 76, 67, 69, 58, 18, 17, 57, 82, 72, 37, 45, 73, 51, 58, 25, 37, 31, 38, 61, 44, 46, 31, 52, 41, 65, 28, 42, 54, 34, 57, 25, 33, 70, 67, 64, 49, 45, 19, 70, 29, 38, 39, 50, 75, 30, 24, 25, 72, 55, 69, 22, 28, 67, 63, 55, 48, 78, 56, 43, 38, 30, 45, 58, 40, 6, 17, 44, 54, 54, 81, 49, 75, 84, 38, 62, 27, 8, 59, 30, 65, 32, 76, 57, 67, 25, 17, 14, 34, 68, 47, 47, 19, 31, 30, 37, 67, 51, 37, 69, 17, 19, 30, 11, 50, 34, 19, 25, 28, 8, 67, 50, 36, 67, 22, 13, 49, 35, 69, 53, 54, 70, 77, 13, 34, 45, 50, 34, 50, 24, 52, 59, 32, 23, 58, 43, 52, 74, 43, 46, 53, 76, 37, 73, 24, 38, 76, 40, 42, 47, 57, 67, 39, 23, 55, 34, 75, 9, 65, 77, 27, 72, 30, 41, 58, 54, 67, 72, 35, 2, 72, 68, 90, 69, 29, 54, 80, 61, 7, 76, 54, 41, 54, 61, 32, 28, 75, 13, 49, 46, 36, 22, 66, 23, 34, 34, 29, 17, 74, 31, 72, 41, 79, 52, 22, 79, 74, 50, 39, 55, 14, 64, 16, 29, 40, 43, 36, 50
              |55, 73, 19, 65, 42, 51, 54, 54, 49, 71, 20, 34, 39, 64, 14, 33, 11, 80, 40, 7, 25, 17, 12, 50, 36, 38, 26, 30, 53, 24, 12, 67, 34, 20, 60, 22, 59, 64, 40, 67, 63, 20, 17, 22, 27, 22, 41, 65, 80, 16, 65, 80, 13, 78, 28, 83, 57, 52, 61, 4, 65, 89, 48, 57, 58, 50, 45, 47, 18, 43, 75, 19, 73, 55, 34, 10, 28, 41, 16, 92, 52, 57, 47, 82, 73, 74, 68, 16, 30, 63, 95, 74, 51, 32, 86, 64, 63, 13, 51, 20, 42, 59, 34, 56, 37, 51, 55, 70, 35, 30, 53, 48, 64, 38, 20, 80, 80, 72, 56, 58, 19, 81, 42, 51, 52, 64, 88, 39, 19, 21, 85, 68, 82, 29, 39, 80, 76, 56, 42, 90, 69, 56, 51, 16, 36, 57, 43, 11, 30, 32, 64, 67, 84, 63, 86, 96, 44, 70, 17, 7, 61, 37, 74, 40, 89, 66, 79, 30, 23, 24, 30, 74, 57, 56, 13, 42, 18, 35, 67, 64, 42, 76, 17, 7, 16, 3, 54, 46, 24, 32, 38, 6, 80, 50, 45, 79, 33, 23, 62, 45, 82, 66, 55, 70, 90, 16, 45, 49, 61, 32, 37, 18, 64, 72, 24, 28, 72, 52, 65, 76, 52, 57, 66, 86, 47, 83, 24, 35, 88, 53, 43, 40, 70, 80, 52, 34, 62, 47, 81, 22, 78, 79, 38, 85, 44, 38, 72, 63, 78, 81, 48, 14, 73, 71, 103, 79, 39, 68, 92, 65, 21, 89, 63, 55, 68, 73, 29, 34, 84, 25, 62, 58, 34, 18, 79, 10, 38, 47, 34, 30, 82, 44, 78, 49, 90, 51, 32, 92, 87, 37, 39, 67, 27, 78, 18, 41, 44, 43, 34, 61
              |25, 10, 55, 107, 33, 23, 81, 17, 58, 56, 58, 32, 34, 89, 51, 49, 55, 17, 26, 69, 64, 64, 53, 68, 59, 27, 70, 48, 46, 44, 53, 99, 53, 68, 73, 79, 14, 27, 81, 62, 50, 74, 80, 80, 83, 74, 46, 106, 26, 57, 32, 90, 53, 60, 48, 35, 49, 54, 16, 64, 7, 86, 17, 62, 51, 67, 49, 103, 49, 91, 39, 78, 43, 94, 66, 72, 66, 25, 50, 87, 93, 94, 29, 27, 25, 18, 47, 79, 59, 23, 84, 9, 82, 70, 75, 64, 20, 60, 79, 56, 27, 14, 50, 102, 36, 15, 82, 23, 91, 59, 14, 70, 25, 73, 73, 49, 93, 36, 110, 92, 47, 62, 71, 78, 66, 84, 87, 42, 84, 86, 74, 83, 85, 84, 51, 77, 83, 9, 35, 79, 66, 69, 82, 64, 49, 12, 24, 69, 59, 60, 110, 66, 21, 87, 60, 82, 100, 37, 54, 61, 6, 36, 43, 93, 77, 37, 74, 88, 48, 52, 37, 27, 42, 38, 53, 47, 61, 31, 7, 70, 100, 32, 79, 71, 74, 63, 17, 87, 45, 41, 46, 63, 89, 16, 95, 66, 50, 53, 81, 43, 80, 102, 10, 7, 85, 76, 48, 20, 54, 34, 70, 47, 99, 92, 46, 86, 74, 103, 68, 11, 102, 100, 102, 58, 96, 58, 41, 32, 70, 64, 22, 41, 90, 70, 58, 50, 27, 58, 26, 64, 74, 14, 49, 85, 64, 29, 83, 37, 61, 46, 62, 61, 8, 13, 92, 55, 44, 83, 78, 15, 64, 90, 39, 82, 93, 68, 37, 91, 45, 55, 81, 55, 33, 47, 82, 63, 31, 64, 92, 70, 39, 55, 24, 102, 67, 15, 83, 87, 75, 73, 26, 58, 71, 83, 79, 84, 26, 21, 31, 45
              |66, 87, 75, 63, 67, 103, 44, 76, 45, 34, 107, 79, 68, 38, 90, 110, 86, 87, 81, 99, 114, 76, 86, 43, 57, 89, 118, 107, 48, 96, 89, 47, 60, 111, 33, 82, 77, 63, 62, 30, 41, 79, 91, 84, 80, 77, 57, 62, 75, 102, 59, 18, 84, 31, 68, 66, 44, 44, 74, 96, 84, 4, 84, 36, 42, 43, 52, 85, 80, 70, 54, 111, 49, 57, 59, 102, 66, 92, 83, 5, 61, 55, 105, 75, 69, 78, 43, 93, 62, 67, 12, 91, 50, 122, 16, 31, 70, 101, 47, 105, 75, 100, 113, 69, 69, 92, 45, 70, 81, 115, 94, 46, 65, 58, 112, 46, 21, 56, 86, 52, 84, 31, 52, 46, 40, 34, 4, 62, 99, 99, 17, 28, 11, 80, 56, 14, 17, 89, 106, 15, 26, 37, 49, 107, 113, 96, 77, 84, 62, 117, 70, 28, 91, 39, 36, 17, 86, 55, 100, 86, 85, 68, 49, 79, 15, 53, 16, 84, 74, 70, 94, 67, 50, 54, 92, 55, 106, 91, 98, 29, 87, 64, 91, 98, 109, 90, 76, 60, 76, 69, 59, 87, 17, 91, 73, 25, 62, 71, 34, 56, 11, 54, 86, 96, 6, 86, 52, 76, 38, 91, 126, 92, 52, 31, 99, 85, 21, 77, 28, 96, 74, 63, 54, 40, 72, 38, 85, 93, 25, 40, 86, 110, 31, 20, 42, 61, 63, 47, 75, 71, 17, 97, 57, 8, 49, 95, 23, 53, 30, 50, 45, 79, 96, 81, 14, 38, 61, 28, 17, 76, 72, 5, 51, 45, 39, 23, 92, 83, 54, 69, 34, 40, 93, 90, 14, 101, 73, 45, 87, 65, 60, 51, 75, 79, 31, 92, 75, 5, 17, 127, 87, 33, 69, 16, 88, 64, 73, 85, 90, 46
              |47, 63, 69, 79, 52, 84, 53, 55, 40, 17, 97, 65, 54, 53, 81, 98, 78, 62, 65, 94, 105, 73, 78, 45, 53, 73, 109, 95, 35, 84, 80, 64, 54, 103, 38, 84, 55, 41, 68, 22, 25, 79, 91, 86, 84, 78, 47, 78, 49, 93, 37, 38, 77, 10, 60, 39, 31, 35, 53, 90, 61, 25, 66, 33, 30, 44, 42, 94, 72, 78, 29, 107, 25, 69, 59, 98, 65, 76, 75, 22, 72, 67, 87, 49, 44, 53, 23, 93, 59, 45, 17, 67, 59, 113, 11, 27, 48, 93, 54, 96, 59, 79, 100, 82, 56, 73, 54, 46, 87, 104, 74, 49, 43, 61, 106, 20, 42, 32, 97, 64, 75, 7, 55, 53, 41, 46, 26, 50, 99, 99, 11, 40, 29, 83, 48, 20, 32, 68, 90, 13, 22, 39, 58, 99, 99, 76, 61, 82, 59, 106, 85, 25, 65, 52, 9, 14, 94, 31, 91, 81, 63, 55, 25, 86, 12, 31, 17, 88, 66, 64, 80, 42, 33, 36, 83, 46, 98, 76, 75, 31, 95, 38, 91, 94, 104, 85, 55, 68, 66, 58, 50, 82, 37, 73, 82, 10, 55, 64, 45, 44, 22, 70, 65, 73, 21, 86, 43, 57, 26, 77, 116, 82, 67, 48, 87, 89, 27, 88, 28, 72, 85, 76, 70, 12, 81, 11, 74, 78, 2, 38, 69, 94, 47, 13, 37, 54, 42, 42, 49, 69, 19, 72, 49, 26, 49, 79, 37, 33, 9, 24, 43, 74, 72, 57, 24, 13, 50, 41, 11, 53, 70, 30, 31, 54, 55, 18, 78, 88, 27, 63, 45, 30, 78, 80, 28, 94, 59, 44, 92, 66, 33, 45, 49, 90, 4, 73, 79, 22, 11, 118, 70, 21, 69, 31, 89, 71, 56, 67, 75, 29
              |61, 86, 29, 30, 50, 77, 24, 66, 35, 59, 55, 51, 47, 33, 43, 66, 36, 92, 57, 40, 61, 21, 37, 28, 25, 60, 61, 63, 47, 54, 40, 33, 29, 55, 36, 16, 71, 68, 6, 51, 54, 16, 25, 18, 13, 13, 39, 30, 86, 51, 67, 52, 37, 65, 33, 85, 49, 41, 71, 40, 79, 65, 66, 40, 48, 29, 38, 23, 37, 9, 73, 50, 69, 20, 17, 42, 16, 64, 38, 69, 16, 22, 74, 88, 79, 83, 61, 28, 23, 69, 74, 88, 19, 67, 67, 46, 71, 48, 21, 55, 55, 82, 68, 22, 46, 72, 24, 77, 14, 65, 74, 24, 69, 12, 53, 74, 51, 72, 29, 23, 42, 68, 18, 22, 32, 34, 64, 41, 33, 32, 66, 41, 57, 12, 34, 59, 51, 74, 72, 71, 51, 34, 19, 52, 69, 78, 58, 24, 23, 67, 30, 48, 97, 31, 75, 77, 22, 69, 51, 32, 76, 45, 70, 14, 69, 64, 59, 16, 35, 30, 57, 78, 53, 55, 43, 38, 53, 59, 86, 43, 22, 78, 26, 37, 49, 34, 66, 11, 38, 40, 37, 31, 52, 70, 13, 63, 32, 29, 34, 43, 60, 30, 72, 88, 68, 21, 39, 62, 50, 57, 72, 48, 29, 41, 56, 17, 49, 21, 45, 92, 20, 22, 30, 77, 14, 73, 47, 60, 72, 35, 62, 71, 40, 62, 37, 33, 66, 33, 87, 18, 57, 95, 35, 61, 25, 64, 45, 61, 65, 77, 31, 25, 90, 82, 81, 70, 39, 40, 73, 75, 19, 64, 61, 24, 35, 55, 55, 15, 81, 27, 34, 46, 59, 46, 55, 46, 50, 29, 19, 11, 82, 33, 85, 21, 77, 72, 7, 69, 68, 72, 60, 53, 11, 52, 22, 5, 56, 62, 58, 55
              |36, 46, 27, 85, 27, 22, 65, 31, 49, 63, 22, 14, 25, 75, 15, 18, 21, 53, 16, 33, 29, 35, 19, 55, 41, 10, 35, 16, 45, 7, 18, 82, 36, 31, 65, 48, 35, 45, 57, 63, 55, 43, 46, 48, 52, 45, 36, 85, 56, 20, 47, 85, 20, 69, 27, 62, 50, 49, 38, 28, 39, 88, 22, 57, 52, 55, 41, 74, 19, 65, 58, 41, 59, 73, 45, 35, 42, 12, 17, 91, 71, 74, 19, 58, 51, 49, 57, 45, 38, 42, 91, 46, 64, 36, 81, 62, 41, 23, 62, 20, 21, 30, 21, 78, 24, 22, 66, 48, 61, 26, 24, 55, 44, 52, 36, 66, 86, 55, 81, 73, 14, 72, 53, 62, 56, 72, 89, 31, 49, 51, 80, 74, 84, 54, 38, 79, 79, 29, 16, 86, 66, 59, 64, 27, 20, 28, 21, 36, 38, 28, 86, 65, 58, 73, 75, 91, 70, 54, 17, 27, 34, 24, 59, 64, 84, 50, 77, 57, 22, 28, 1, 53, 46, 43, 16, 38, 24, 6, 38, 65, 69, 56, 45, 35, 37, 28, 31, 64, 19, 24, 34, 29, 85, 21, 68, 72, 33, 28, 70, 37, 81, 82, 28, 42, 89, 43, 40, 26, 55, 3, 38, 11, 80, 81, 9, 54, 72, 76, 65, 47, 75, 77, 82, 74, 70, 72, 9, 6, 80, 55, 16, 17, 79, 75, 51, 33, 43, 47, 57, 37, 76, 51, 36, 85, 50, 9, 77, 48, 70, 65, 51, 31, 45, 46, 99, 68, 32, 74, 87, 41, 37, 90, 49, 66, 79, 70, 1, 60, 67, 31, 70, 53, 4, 11, 81, 26, 21, 51, 61, 46, 63, 43, 54, 74, 81, 22, 55, 91, 82, 40, 12, 61, 45, 80, 46, 60, 24, 17, 6, 50
              |44, 50, 36, 94, 37, 19, 75, 38, 60, 73, 20, 24, 35, 86, 21, 9, 28, 57, 25, 35, 24, 43, 27, 66, 52, 17, 30, 8, 55, 10, 24, 92, 46, 29, 75, 55, 42, 53, 66, 74, 65, 51, 51, 55, 60, 52, 47, 94, 62, 20, 56, 96, 28, 79, 38, 69, 60, 59, 44, 31, 44, 99, 28, 68, 62, 66, 52, 81, 28, 73, 66, 41, 68, 82, 55, 37, 51, 16, 26, 101, 80, 83, 14, 64, 58, 55, 66, 49, 48, 50, 101, 49, 74, 30, 92, 73, 49, 23, 72, 18, 30, 30, 11, 86, 34, 25, 76, 55, 68, 19, 26, 66, 52, 62, 35, 75, 97, 64, 89, 83, 23, 82, 63, 72, 67, 83, 99, 42, 52, 55, 90, 85, 94, 61, 49, 90, 90, 32, 8, 96, 77, 70, 74, 26, 10, 29, 29, 43, 48, 20, 94, 76, 61, 84, 84, 101, 77, 62, 18, 34, 39, 35, 68, 72, 95, 60, 87, 64, 32, 38, 10, 60, 56, 53, 22, 48, 22, 13, 39, 76, 76, 64, 50, 38, 37, 33, 38, 73, 29, 35, 44, 35, 96, 24, 76, 83, 43, 38, 81, 48, 92, 92, 33, 43, 99, 50, 51, 34, 66, 12, 31, 17, 90, 92, 9, 61, 83, 83, 76, 49, 84, 86, 92, 83, 78, 81, 19, 11, 90, 66, 22, 7, 90, 86, 62, 44, 51, 58, 63, 46, 86, 52, 47, 96, 60, 12, 87, 57, 80, 74, 62, 39, 46, 51, 110, 78, 43, 85, 97, 47, 46, 101, 59, 76, 90, 81, 12, 67, 75, 41, 81, 64, 11, 18, 91, 28, 31, 62, 67, 55, 71, 54, 60, 81, 91, 25, 63, 101, 92, 34, 19, 71, 54, 91, 52, 69, 33, 24, 14, 60
              |49, 72, 57, 57, 49, 85, 32, 58, 27, 19, 89, 61, 50, 31, 72, 92, 68, 73, 63, 82, 96, 59, 68, 27, 39, 71, 100, 89, 30, 78, 71, 42, 42, 93, 18, 67, 60, 47, 49, 12, 24, 63, 75, 69, 66, 61, 39, 56, 61, 84, 43, 18, 66, 19, 50, 54, 26, 26, 58, 79, 68, 14, 66, 18, 24, 26, 33, 74, 62, 58, 41, 94, 35, 48, 43, 85, 49, 74, 65, 17, 51, 46, 87, 62, 55, 63, 28, 77, 45, 51, 20, 76, 38, 104, 13, 12, 54, 83, 34, 87, 57, 83, 94, 61, 51, 75, 33, 55, 68, 97, 76, 31, 49, 43, 95, 35, 22, 42, 76, 43, 66, 21, 37, 33, 24, 25, 14, 43, 83, 83, 12, 18, 11, 66, 38, 5, 11, 71, 88, 16, 8, 21, 37, 89, 94, 79, 59, 67, 45, 99, 63, 9, 77, 30, 28, 23, 74, 41, 82, 69, 68, 50, 36, 66, 15, 37, 5, 70, 56, 52, 75, 53, 32, 36, 74, 37, 88, 72, 81, 12, 75, 50, 76, 81, 92, 72, 58, 48, 58, 51, 41, 70, 17, 74, 62, 13, 44, 53, 23, 38, 7, 48, 68, 80, 15, 70, 34, 58, 20, 73, 108, 74, 46, 27, 81, 71, 5, 67, 10, 81, 64, 55, 48, 31, 61, 28, 67, 75, 20, 22, 68, 91, 26, 9, 24, 43, 47, 29, 62, 54, 3, 82, 39, 11, 32, 77, 15, 37, 18, 39, 27, 61, 80, 66, 27, 26, 42, 19, 19, 60, 56, 16, 35, 33, 33, 6, 73, 69, 43, 51, 23, 22, 74, 72, 8, 83, 55, 28, 74, 49, 48, 33, 61, 69, 26, 75, 61, 17, 14, 109, 68, 16, 53, 10, 72, 51, 55, 67, 72, 29
              |44, 70, 37, 42, 38, 74, 14, 52, 11, 29, 70, 47, 38, 20, 54, 75, 48, 74, 51, 61, 77, 38, 49, 5, 19, 58, 80, 72, 24, 61, 52, 30, 24, 73, 6, 44, 56, 47, 27, 19, 26, 41, 53, 47, 44, 39, 25, 41, 65, 65, 44, 27, 47, 34, 32, 60, 23, 16, 55, 58, 65, 34, 57, 9, 21, 4, 20, 53, 44, 37, 47, 73, 42, 30, 21, 64, 27, 62, 47, 39, 32, 29, 74, 66, 57, 64, 33, 55, 24, 50, 42, 73, 18, 85, 35, 14, 52, 64, 14, 69, 46, 75, 78, 43, 38, 65, 15, 56, 46, 79, 67, 8, 49, 21, 74, 45, 28, 47, 57, 26, 48, 36, 15, 13, 3, 14, 34, 30, 61, 61, 34, 16, 28, 43, 21, 27, 22, 64, 74, 39, 19, 2, 17, 69, 78, 71, 49, 46, 24, 81, 47, 16, 78, 18, 44, 45, 53, 45, 64, 48, 63, 37, 43, 45, 37, 40, 27, 48, 38, 33, 60, 56, 29, 33, 55, 23, 69, 59, 76, 10, 54, 54, 53, 60, 71, 52, 52, 28, 40, 36, 26, 49, 26, 64, 41, 31, 26, 34, 12, 26, 29, 35, 61, 76, 37, 48, 21, 50, 21, 58, 89, 56, 32, 23, 64, 49, 18, 48, 13, 78, 45, 38, 35, 46, 41, 43, 51, 61, 40, 6, 57, 76, 21, 29, 11, 26, 46, 12, 65, 33, 25, 80, 23, 31, 11, 64, 18, 38, 34, 49, 8, 40, 77, 65, 50, 39, 28, 15, 41, 58, 34, 35, 36, 15, 24, 23, 58, 47, 53, 31, 12, 18, 60, 54, 25, 63, 43, 8, 52, 27, 56, 16, 63, 49, 45, 65, 39, 39, 36, 90, 56, 22, 30, 23, 50, 30, 45, 56, 58, 29
              |45, 68, 54, 57, 45, 81, 31, 54, 23, 16, 85, 57, 46, 31, 69, 88, 64, 69, 59, 79, 93, 56, 64, 25, 36, 67, 96, 85, 26, 74, 67, 43, 39, 90, 17, 65, 56, 43, 47, 8, 20, 61, 73, 67, 64, 59, 35, 56, 58, 81, 40, 22, 63, 17, 46, 51, 22, 22, 54, 75, 64, 18, 62, 15, 20, 24, 29, 73, 59, 57, 38, 91, 32, 47, 40, 82, 47, 70, 62, 21, 51, 46, 83, 59, 51, 60, 24, 75, 42, 47, 22, 72, 37, 100, 15, 8, 50, 80, 33, 84, 53, 79, 90, 60, 47, 70, 32, 51, 67, 93, 72, 29, 45, 41, 92, 32, 25, 39, 76, 43, 62, 19, 35, 32, 21, 25, 18, 39, 81, 81, 13, 19, 15, 64, 34, 9, 14, 67, 84, 18, 4, 18, 36, 86, 90, 75, 55, 64, 42, 95, 64, 6, 73, 30, 27, 25, 73, 37, 79, 66, 64, 46, 33, 65, 17, 34, 7, 68, 52, 49, 71, 50, 28, 32, 70, 33, 85, 68, 77, 10, 74, 47, 73, 78, 89, 69, 54, 47, 54, 47, 37, 67, 20, 70, 61, 12, 40, 50, 23, 34, 11, 49, 64, 76, 18, 68, 30, 54, 16, 69, 104, 70, 46, 28, 77, 69, 6, 66, 7, 77, 64, 55, 49, 29, 60, 26, 63, 71, 20, 19, 64, 87, 27, 9, 21, 40, 43, 26, 58, 51, 6, 78, 35, 16, 30, 73, 17, 33, 16, 36, 24, 58, 76, 62, 31, 24, 38, 20, 21, 56, 53, 21, 31, 32, 34, 4, 69, 68, 41, 48, 23, 17, 70, 68, 12, 80, 51, 25, 72, 47, 45, 29, 57, 68, 26, 70, 59, 21, 16, 105, 64, 12, 50, 14, 70, 50, 51, 63, 68, 25
              |36, 49, 66, 87, 45, 73, 59, 44, 41, 17, 91, 57, 47, 61, 76, 89, 74, 47, 55, 91, 98, 72, 73, 49, 53, 64, 103, 87, 31, 77, 75, 73, 52, 98, 45, 84, 43, 29, 72, 27, 22, 79, 90, 86, 85, 78, 43, 86, 34, 87, 25, 51, 72, 13, 56, 24, 28, 35, 40, 86, 48, 39, 55, 37, 28, 48, 40, 98, 67, 82, 16, 103, 13, 76, 60, 94, 65, 66, 70, 37, 78, 74, 77, 34, 30, 39, 16, 92, 58, 32, 32, 53, 64, 106, 26, 32, 35, 88, 60, 89, 50, 67, 91, 88, 49, 61, 60, 32, 90, 97, 62, 53, 30, 64, 101, 6, 54, 18, 102, 72, 69, 12, 58, 59, 45, 55, 40, 45, 98, 99, 25, 50, 42, 85, 46, 32, 44, 56, 80, 28, 29, 44, 63, 94, 90, 63, 51, 80, 58, 99, 93, 31, 50, 60, 6, 29, 98, 19, 85, 78, 50, 49, 12, 89, 27, 21, 29, 90, 61, 60, 72, 28, 27, 29, 77, 43, 92, 67, 61, 38, 98, 24, 90, 91, 100, 81, 44, 73, 61, 53, 46, 79, 49, 61, 87, 19, 52, 61, 53, 39, 35, 79, 53, 59, 36, 85, 40, 47, 26, 69, 109, 76, 76, 59, 80, 90, 36, 93, 35, 57, 91, 83, 79, 3, 86, 4, 67, 69, 17, 41, 59, 85, 57, 24, 38, 51, 30, 43, 34, 68, 31, 58, 47, 40, 51, 69, 47, 23, 14, 9, 45, 72, 58, 43, 39, 7, 46, 51, 26, 40, 69, 44, 22, 60, 64, 27, 70, 91, 12, 61, 53, 30, 69, 74, 40, 89, 51, 47, 94, 67, 18, 44, 34, 94, 13, 61, 81, 37, 25, 111, 61, 23, 70, 43, 88, 75, 47, 57, 66, 24
              |63, 89, 36, 22, 52, 83, 15, 69, 32, 55, 65, 56, 51, 22, 52, 75, 45, 93, 62, 50, 71, 30, 46, 23, 26, 66, 72, 72, 46, 62, 49, 22, 32, 65, 29, 27, 73, 68, 6, 46, 51, 26, 36, 29, 23, 24, 40, 22, 87, 61, 66, 42, 45, 60, 38, 84, 47, 39, 73, 50, 82, 56, 70, 35, 46, 24, 38, 27, 44, 11, 71, 60, 67, 10, 19, 52, 21, 71, 46, 61, 8, 11, 81, 88, 79, 84, 58, 39, 26, 70, 66, 91, 9, 77, 60, 41, 72, 58, 13, 65, 59, 87, 77, 18, 50, 77, 15, 77, 22, 75, 79, 19, 69, 12, 64, 71, 41, 70, 30, 12, 49, 63, 15, 14, 27, 25, 55, 44, 43, 42, 59, 32, 48, 22, 35, 51, 42, 78, 79, 63, 45, 28, 10, 62, 78, 83, 62, 34, 26, 77, 24, 42, 98, 21, 71, 69, 27, 68, 60, 41, 79, 49, 68, 20, 62, 63, 52, 26, 41, 35, 64, 78, 52, 54, 52, 39, 63, 65, 91, 36, 28, 78, 37, 48, 60, 44, 69, 1, 45, 45, 39, 41, 43, 76, 15, 57, 35, 35, 25, 44, 52, 20, 76, 92, 59, 32, 39, 65, 46, 64, 82, 56, 18, 31, 64, 28, 42, 21, 39, 95, 19, 15, 20, 72, 14, 69, 54, 67, 66, 31, 68, 79, 30, 55, 34, 36, 67, 31, 87, 26, 50, 98, 36, 52, 23, 70, 36, 60, 60, 74, 28, 34, 93, 84, 72, 66, 41, 31, 66, 77, 27, 54, 59, 15, 24, 49, 62, 24, 78, 32, 25, 43, 66, 54, 46, 56, 55, 26, 28, 17, 80, 33, 85, 22, 71, 77, 17, 61, 61, 82, 65, 49, 19, 44, 33, 6, 59, 67, 64, 53
              |25, 34, 60, 91, 36, 59, 63, 31, 42, 23, 81, 47, 39, 67, 67, 78, 67, 33, 44, 84, 89, 67, 66, 51, 51, 52, 94, 76, 28, 67, 67, 78, 49, 89, 50, 81, 29, 16, 72, 33, 23, 76, 86, 83, 83, 75, 38, 90, 20, 78, 13, 60, 65, 24, 50, 12, 27, 35, 26, 79, 34, 51, 42, 40, 28, 50, 37, 99, 60, 83, 3, 96, 7, 79, 59, 87, 63, 54, 62, 50, 81, 78, 64, 20, 16, 25, 16, 87, 55, 19, 46, 38, 67, 96, 38, 38, 21, 79, 63, 79, 39, 53, 80, 91, 41, 48, 64, 17, 89, 86, 49, 55, 17, 64, 93, 9, 64, 5, 104, 76, 61, 24, 59, 62, 47, 61, 52, 39, 93, 94, 37, 57, 53, 83, 43, 43, 53, 42, 67, 41, 36, 48, 66, 85, 79, 49, 40, 75, 55, 88, 96, 38, 36, 66, 20, 43, 97, 7, 75, 71, 36, 41, 6, 89, 40, 12, 40, 88, 54, 55, 61, 13, 23, 22, 69, 39, 83, 56, 47, 44, 98, 9, 86, 84, 92, 74, 31, 75, 54, 45, 41, 73, 59, 48, 88, 30, 47, 56, 59, 34, 46, 84, 40, 45, 49, 81, 37, 35, 28, 58, 98, 66, 81, 66, 69, 88, 44, 95, 41, 43, 93, 87, 84, 18, 88, 18, 58, 57, 31, 44, 47, 73, 65, 35, 39, 46, 17, 43, 20, 65, 41, 43, 43, 51, 51, 57, 55, 15, 25, 6, 46, 67, 44, 28, 53, 17, 40, 58, 40, 26, 65, 56, 15, 64, 71, 36, 60, 89, 6, 56, 59, 32, 58, 65, 50, 81, 41, 48, 93, 66, 6, 42, 20, 95, 28, 48, 80, 50, 38, 101, 49, 28, 68, 52, 84, 76, 36, 45, 55, 21
              |71, 90, 33, 64, 58, 66, 60, 71, 61, 84, 30, 51, 55, 69, 31, 44, 28, 96, 57, 13, 32, 28, 29, 59, 48, 55, 29, 43, 67, 39, 29, 70, 47, 24, 69, 21, 76, 80, 43, 79, 77, 23, 12, 19, 25, 25, 56, 64, 96, 28, 81, 88, 30, 91, 43, 99, 71, 65, 78, 17, 82, 98, 65, 68, 72, 60, 59, 40, 34, 42, 90, 14, 88, 56, 43, 11, 37, 57, 33, 102, 52, 58, 62, 98, 90, 90, 82, 9, 42, 80, 106, 90, 55, 35, 98, 75, 80, 25, 57, 31, 58, 75, 45, 53, 53, 68, 60, 87, 30, 38, 69, 56, 80, 45, 20, 95, 87, 88, 48, 60, 35, 94, 50, 57, 62, 70, 98, 54, 6, 8, 96, 76, 91, 27, 53, 91, 85, 73, 57, 102, 81, 66, 56, 24, 47, 73, 60, 19, 42, 40, 61, 78, 101, 68, 100, 108, 36, 86, 30, 22, 77, 53, 89, 35, 100, 81, 90, 25, 39, 38, 46, 90, 72, 71, 29, 56, 27, 51, 84, 74, 34, 92, 11, 10, 15, 19, 71, 48, 40, 48, 53, 20, 88, 66, 42, 91, 47, 37, 69, 60, 92, 66, 72, 87, 100, 16, 58, 66, 74, 48, 40, 34, 65, 78, 39, 22, 82, 47, 76, 92, 48, 56, 66, 100, 44, 98, 40, 51, 100, 64, 60, 53, 76, 91, 64, 48, 78, 58, 97, 32, 89, 95, 52, 94, 54, 54, 80, 78, 91, 96, 59, 26, 89, 88, 113, 93, 53, 75, 104, 82, 30, 98, 78, 60, 72, 85, 45, 29, 99, 38, 69, 71, 50, 34, 88, 21, 55, 58, 26, 37, 98, 56, 94, 43, 104, 68, 31, 102, 98, 39, 56, 79, 34, 87, 15, 42, 61, 60, 51, 75
              |50, 53, 42, 100, 43, 20, 82, 43, 66, 79, 21, 31, 41, 92, 26, 8, 34, 60, 30, 39, 24, 49, 32, 72, 58, 22, 30, 8, 62, 16, 30, 98, 52, 30, 82, 59, 46, 58, 72, 80, 71, 56, 55, 59, 65, 58, 53, 100, 66, 23, 61, 102, 33, 85, 44, 74, 67, 66, 49, 35, 47, 105, 32, 74, 68, 72, 58, 85, 34, 79, 71, 42, 73, 88, 61, 40, 57, 20, 32, 108, 85, 89, 14, 68, 63, 58, 72, 53, 54, 55, 107, 51, 80, 28, 98, 79, 53, 26, 78, 20, 36, 31, 8, 92, 40, 28, 82, 59, 72, 17, 29, 72, 57, 68, 36, 80, 103, 69, 93, 89, 29, 88, 69, 79, 73, 89, 106, 48, 56, 58, 97, 91, 101, 66, 55, 96, 97, 35, 8, 102, 83, 77, 80, 28, 6, 31, 35, 47, 54, 18, 100, 82, 63, 90, 90, 107, 82, 68, 21, 39, 42, 41, 74, 77, 101, 65, 94, 68, 38, 44, 16, 64, 62, 59, 27, 55, 24, 19, 41, 82, 80, 68, 55, 42, 38, 38, 43, 79, 36, 41, 51, 40, 102, 28, 81, 89, 50, 44, 87, 54, 98, 98, 36, 45, 105, 54, 57, 39, 72, 18, 28, 22, 96, 98, 14, 65, 89, 89, 82, 51, 89, 92, 98, 88, 83, 87, 25, 17, 96, 72, 27, 2, 96, 92, 68, 50, 56, 65, 67, 52, 93, 54, 53, 102, 66, 16, 94, 63, 86, 79, 68, 45, 48, 54, 116, 83, 49, 91, 103, 51, 51, 107, 64, 82, 96, 87, 18, 72, 80, 47, 87, 70, 17, 24, 98, 31, 37, 68, 72, 61, 76, 60, 64, 86, 96, 28, 68, 108, 98, 31, 25, 77, 59, 97, 56, 75, 39, 29, 20, 66
              |72, 95, 34, 40, 59, 79, 42, 74, 50, 75, 49, 56, 56, 49, 42, 62, 36, 100, 62, 31, 53, 24, 37, 45, 38, 64, 52, 60, 61, 53, 39, 48, 41, 46, 53, 9, 79, 79, 23, 67, 69, 14, 13, 9, 6, 14, 51, 40, 97, 46, 79, 69, 37, 81, 42, 97, 63, 56, 80, 33, 87, 82, 72, 56, 63, 46, 52, 18, 40, 19, 86, 38, 83, 34, 31, 32, 26, 67, 40, 87, 29, 36, 75, 99, 90, 93, 75, 16, 34, 80, 91, 96, 36, 58, 84, 63, 81, 42, 38, 50, 62, 86, 64, 29, 54, 76, 41, 87, 6, 59, 78, 41, 80, 29, 43, 89, 68, 85, 26, 38, 43, 84, 35, 39, 49, 51, 82, 52, 18, 17, 83, 58, 74, 6, 46, 76, 68, 80, 71, 88, 68, 51, 37, 44, 65, 83, 64, 21, 34, 61, 37, 65, 105, 48, 91, 94, 14, 82, 47, 30, 83, 54, 84, 11, 87, 77, 76, 1, 41, 37, 57, 90, 66, 67, 41, 50, 47, 61, 92, 60, 13, 90, 14, 28, 38, 30, 74, 27, 43, 48, 48, 28, 70, 75, 18, 80, 42, 36, 51, 55, 77, 43, 78, 94, 85, 13, 52, 69, 65, 58, 63, 47, 43, 58, 54, 2, 67, 23, 62, 99, 25, 33, 43, 92, 21, 89, 49, 62, 89, 51, 67, 69, 57, 78, 53, 43, 77, 48, 98, 25, 74, 102, 47, 78, 41, 66, 62, 74, 81, 91, 47, 27, 97, 91, 98, 85, 50, 57, 90, 85, 25, 81, 74, 41, 51, 72, 56, 5, 95, 34, 51, 61, 61, 45, 72, 39, 58, 45, 4, 24, 95, 47, 95, 20, 93, 76, 11, 87, 85, 62, 64, 69, 21, 70, 11, 22, 64, 67, 60, 69
              |20, 10, 52, 102, 29, 26, 76, 13, 53, 51, 58, 30, 30, 84, 49, 50, 52, 17, 23, 68, 64, 61, 51, 63, 55, 26, 70, 48, 41, 43, 51, 94, 49, 67, 68, 76, 9, 23, 77, 57, 45, 71, 77, 77, 80, 71, 41, 102, 23, 56, 27, 85, 51, 55, 45, 32, 44, 49, 11, 63, 3, 81, 15, 57, 46, 63, 45, 100, 47, 87, 34, 77, 38, 89, 62, 70, 62, 25, 47, 82, 89, 89, 31, 25, 21, 15, 42, 77, 55, 18, 79, 11, 78, 70, 70, 59, 16, 59, 74, 56, 23, 17, 51, 98, 32, 16, 77, 19, 87, 60, 15, 66, 21, 69, 72, 44, 88, 32, 107, 88, 44, 57, 67, 74, 62, 79, 82, 37, 82, 84, 69, 78, 80, 81, 47, 72, 78, 8, 36, 74, 61, 64, 77, 63, 49, 14, 21, 66, 55, 61, 105, 61, 22, 82, 56, 77, 97, 32, 53, 59, 2, 33, 39, 90, 73, 33, 69, 85, 44, 49, 36, 23, 37, 33, 51, 43, 60, 30, 12, 65, 97, 28, 77, 70, 73, 61, 13, 82, 42, 37, 42, 61, 84, 16, 91, 61, 46, 50, 77, 38, 75, 97, 8, 11, 80, 74, 44, 16, 49, 33, 71, 46, 94, 87, 45, 83, 69, 99, 64, 14, 98, 96, 97, 53, 92, 53, 39, 31, 65, 59, 20, 42, 85, 65, 53, 46, 22, 53, 24, 61, 69, 17, 45, 80, 60, 29, 78, 32, 56, 42, 57, 59, 13, 11, 87, 51, 40, 78, 73, 10, 61, 85, 34, 77, 88, 63, 36, 87, 41, 52, 77, 50, 32, 46, 77, 62, 28, 59, 89, 67, 35, 50, 21, 98, 63, 16, 80, 82, 70, 74, 25, 53, 67, 78, 77, 80, 22, 20, 30, 40
              |28, 6, 60, 111, 37, 29, 84, 21, 61, 57, 64, 38, 39, 92, 57, 55, 60, 12, 31, 75, 70, 69, 59, 71, 63, 33, 76, 54, 48, 50, 59, 102, 58, 74, 76, 84, 17, 28, 85, 64, 51, 79, 86, 85, 88, 80, 49, 110, 22, 63, 32, 92, 59, 60, 53, 32, 51, 56, 18, 70, 8, 87, 22, 65, 53, 71, 53, 108, 55, 96, 38, 84, 43, 98, 70, 78, 71, 31, 55, 87, 97, 97, 35, 23, 23, 15, 48, 85, 64, 24, 84, 3, 86, 76, 75, 66, 21, 66, 82, 63, 32, 18, 56, 107, 40, 21, 85, 22, 96, 65, 20, 74, 26, 78, 79, 48, 95, 36, 115, 96, 52, 62, 75, 82, 69, 86, 88, 46, 90, 92, 74, 85, 86, 89, 55, 78, 85, 15, 40, 79, 67, 72, 86, 70, 54, 17, 29, 74, 64, 66, 114, 68, 15, 90, 59, 82, 106, 36, 60, 67, 11, 41, 43, 98, 78, 38, 75, 93, 53, 57, 43, 26, 44, 40, 59, 51, 67, 37, 9, 72, 105, 30, 85, 77, 80, 68, 21, 91, 50, 46, 50, 69, 91, 22, 100, 66, 55, 58, 84, 47, 81, 105, 16, 6, 85, 82, 52, 25, 56, 40, 76, 53, 102, 94, 52, 92, 76, 108, 70, 6, 106, 104, 105, 57, 101, 57, 47, 38, 69, 66, 28, 47, 92, 71, 61, 54, 28, 61, 23, 69, 75, 8, 53, 86, 68, 35, 85, 38, 61, 45, 65, 67, 5, 11, 92, 55, 48, 85, 78, 15, 70, 91, 40, 85, 96, 69, 43, 96, 43, 60, 84, 57, 39, 53, 83, 69, 36, 67, 98, 75, 37, 58, 21, 107, 66, 21, 88, 87, 75, 79, 32, 59, 76, 85, 85, 89, 30, 27, 37, 47
              |7, 33, 34, 76, 9, 41, 49, 15, 26, 29, 55, 22, 12, 57, 41, 54, 40, 38, 21, 57, 63, 42, 39, 36, 30, 29, 68, 51, 14, 41, 41, 67, 26, 63, 41, 57, 18, 14, 52, 32, 21, 52, 61, 59, 60, 51, 16, 76, 32, 52, 14, 59, 38, 34, 25, 32, 18, 22, 17, 53, 27, 57, 23, 30, 20, 36, 18, 78, 33, 63, 24, 69, 23, 63, 38, 61, 40, 32, 36, 59, 64, 63, 44, 34, 24, 28, 21, 62, 32, 14, 57, 36, 52, 71, 48, 33, 16, 53, 48, 54, 15, 39, 56, 74, 14, 31, 51, 22, 66, 61, 33, 39, 14, 45, 67, 30, 61, 21, 84, 61, 34, 37, 41, 47, 35, 52, 58, 14, 67, 69, 47, 51, 54, 60, 21, 48, 52, 28, 46, 52, 36, 37, 51, 59, 55, 35, 17, 49, 32, 63, 80, 35, 42, 55, 39, 57, 76, 19, 49, 45, 26, 14, 24, 68, 51, 15, 45, 65, 28, 30, 36, 24, 12, 8, 43, 17, 56, 32, 39, 38, 76, 25, 61, 58, 66, 48, 15, 57, 27, 19, 17, 47, 58, 30, 68, 38, 23, 31, 49, 12, 50, 70, 25, 39, 56, 56, 17, 14, 23, 33, 73, 40, 68, 60, 44, 64, 43, 75, 37, 41, 74, 70, 70, 38, 68, 36, 32, 34, 45, 32, 25, 50, 58, 42, 26, 22, 12, 26, 33, 40, 44, 43, 20, 55, 34, 35, 51, 13, 35, 31, 30, 41, 40, 28, 66, 33, 16, 51, 52, 21, 41, 60, 14, 51, 61, 38, 35, 67, 33, 31, 49, 23, 34, 39, 51, 55, 15, 32, 69, 44, 31, 24, 30, 75, 45, 31, 58, 59, 48, 75, 26, 28, 45, 52, 59, 56, 12, 24, 31, 16
              |74, 98, 38, 32, 62, 85, 38, 78, 50, 74, 57, 61, 59, 44, 49, 70, 42, 104, 67, 39, 61, 29, 43, 43, 39, 69, 60, 67, 62, 60, 46, 41, 42, 54, 51, 15, 83, 81, 20, 66, 69, 19, 21, 16, 10, 18, 53, 33, 100, 53, 81, 65, 43, 80, 45, 99, 64, 56, 83, 41, 91, 78, 76, 55, 63, 44, 53, 11, 45, 12, 87, 46, 84, 28, 31, 40, 28, 73, 45, 83, 23, 30, 81, 102, 92, 96, 76, 24, 36, 82, 88, 100, 32, 66, 82, 61, 84, 50, 35, 57, 66, 91, 71, 22, 58, 82, 37, 90, 2, 67, 84, 39, 82, 27, 51, 89, 63, 86, 19, 32, 49, 83, 33, 36, 47, 47, 78, 54, 26, 24, 81, 54, 71, 9, 48, 73, 64, 85, 78, 85, 66, 49, 33, 52, 73, 88, 69, 27, 36, 68, 29, 63, 109, 43, 90, 91, 8, 84, 54, 36, 87, 57, 85, 4, 84, 78, 74, 7, 45, 40, 64, 92, 67, 69, 48, 52, 55, 67, 97, 57, 8, 92, 22, 36, 46, 37, 78, 22, 48, 52, 51, 35, 65, 80, 11, 78, 45, 40, 47, 57, 74, 36, 83, 99, 82, 21, 53, 73, 65, 64, 71, 53, 36, 53, 61, 10, 64, 15, 60, 103, 16, 25, 36, 92, 13, 88, 55, 68, 87, 50, 72, 76, 52, 76, 52, 46, 80, 48, 101, 28, 72, 106, 48, 74, 40, 72, 58, 76, 80, 92, 46, 32, 101, 95, 95, 85, 52, 53, 88, 88, 28, 77, 75, 37, 45, 70, 62, 3, 95, 38, 47, 61, 67, 52, 69, 47, 62, 44, 6, 25, 96, 48, 98, 12, 92, 82, 10, 83, 83, 70, 69, 68, 23, 66, 19, 17, 68, 72, 66, 69
              |35, 48, 23, 81, 25, 26, 61, 31, 46, 61, 22, 13, 23, 71, 12, 21, 17, 55, 16, 30, 29, 30, 16, 51, 37, 12, 34, 18, 43, 7, 14, 78, 32, 30, 61, 44, 36, 44, 53, 60, 52, 39, 42, 44, 49, 41, 33, 81, 57, 19, 47, 82, 16, 67, 24, 62, 48, 46, 38, 25, 41, 85, 23, 54, 49, 52, 38, 70, 15, 61, 57, 39, 57, 69, 41, 33, 37, 15, 13, 88, 66, 69, 23, 59, 52, 50, 55, 41, 34, 42, 88, 48, 60, 37, 79, 59, 42, 21, 58, 20, 20, 33, 23, 74, 21, 25, 62, 49, 57, 27, 27, 52, 44, 48, 35, 64, 83, 54, 78, 69, 10, 70, 49, 58, 52, 68, 86, 28, 45, 47, 77, 71, 80, 50, 35, 76, 76, 31, 20, 83, 64, 56, 60, 26, 23, 31, 20, 32, 34, 29, 82, 62, 59, 69, 73, 89, 66, 53, 16, 23, 36, 22, 58, 60, 82, 49, 74, 53, 18, 24, 5, 53, 44, 41, 13, 34, 23, 9, 41, 62, 65, 56, 42, 32, 35, 24, 31, 60, 15, 21, 30, 25, 81, 24, 64, 70, 29, 24, 66, 34, 79, 78, 30, 44, 86, 40, 37, 26, 53, 6, 39, 8, 76, 77, 10, 51, 69, 72, 62, 50, 71, 73, 78, 72, 66, 70, 5, 9, 78, 52, 17, 21, 76, 73, 48, 29, 42, 44, 58, 33, 73, 53, 33, 82, 46, 13, 73, 47, 68, 64, 47, 27, 47, 47, 97, 66, 29, 71, 84, 42, 33, 87, 48, 62, 75, 67, 3, 56, 66, 27, 66, 50, 8, 8, 77, 24, 19, 48, 57, 42, 63, 40, 55, 70, 79, 25, 51, 88, 80, 41, 13, 58, 41, 77, 42, 56, 23, 18, 8, 48
              |54, 80, 30, 30, 44, 75, 12, 60, 23, 47, 61, 48, 42, 22, 47, 70, 40, 84, 53, 48, 67, 26, 41, 15, 17, 59, 69, 66, 37, 56, 44, 26, 23, 62, 23, 27, 64, 59, 8, 38, 43, 25, 36, 29, 25, 23, 31, 30, 77, 56, 57, 40, 39, 52, 30, 75, 38, 30, 64, 47, 73, 51, 62, 27, 37, 16, 29, 35, 38, 19, 62, 59, 58, 17, 11, 50, 15, 63, 40, 56, 17, 18, 74, 79, 70, 75, 49, 39, 18, 61, 60, 82, 8, 74, 54, 33, 63, 54, 8, 60, 50, 79, 72, 27, 41, 69, 12, 68, 27, 71, 71, 11, 60, 4, 62, 62, 39, 61, 39, 17, 43, 55, 6, 9, 19, 22, 51, 35, 44, 44, 53, 28, 44, 25, 26, 46, 38, 70, 72, 57, 38, 21, 9, 59, 72, 75, 53, 32, 18, 73, 33, 35, 89, 20, 63, 64, 34, 59, 56, 37, 70, 40, 59, 26, 56, 54, 46, 29, 34, 28, 57, 69, 43, 45, 47, 30, 59, 58, 82, 29, 35, 69, 37, 46, 58, 40, 60, 11, 37, 36, 30, 37, 40, 67, 23, 50, 26, 28, 21, 35, 46, 26, 67, 83, 54, 32, 30, 56, 38, 56, 79, 50, 24, 30, 58, 30, 36, 30, 32, 86, 28, 24, 26, 64, 23, 61, 47, 60, 59, 22, 59, 73, 28, 48, 26, 27, 57, 22, 78, 21, 44, 89, 27, 47, 14, 63, 32, 51, 52, 66, 19, 29, 85, 75, 67, 57, 32, 27, 60, 68, 22, 51, 50, 12, 25, 42, 55, 28, 69, 25, 21, 34, 59, 48, 42, 52, 46, 17, 33, 12, 71, 23, 76, 31, 64, 69, 20, 56, 55, 79, 57, 41, 15, 39, 33, 11, 51, 59, 57, 44
              |21, 18, 60, 100, 34, 47, 72, 22, 49, 37, 75, 42, 37, 78, 63, 69, 64, 17, 37, 81, 82, 68, 63, 59, 56, 44, 88, 67, 35, 60, 64, 89, 52, 84, 61, 83, 18, 13, 78, 46, 34, 78, 87, 85, 86, 78, 42, 100, 6, 73, 15, 74, 62, 39, 51, 10, 36, 43, 16, 76, 19, 67, 32, 50, 38, 59, 43, 104, 57, 89, 16, 92, 21, 88, 64, 84, 66, 44, 59, 66, 89, 87, 52, 7, 2, 9, 29, 87, 59, 12, 62, 22, 76, 89, 54, 50, 12, 74, 71, 73, 34, 39, 71, 99, 39, 36, 74, 5, 93, 78, 37, 63, 12, 70, 88, 25, 77, 14, 110, 85, 57, 40, 66, 71, 57, 72, 68, 40, 93, 94, 53, 69, 67, 87, 47, 58, 67, 29, 57, 57, 49, 58, 75, 80, 69, 36, 33, 75, 59, 80, 105, 51, 21, 77, 36, 59, 102, 16, 70, 70, 23, 39, 21, 94, 56, 20, 55, 91, 53, 56, 53, 3, 30, 27, 65, 43, 77, 48, 32, 56, 102, 7, 87, 82, 88, 72, 22, 82, 52, 44, 44, 72, 73, 37, 94, 45, 50, 57, 70, 38, 61, 94, 28, 29, 64, 82, 42, 27, 39, 50, 90, 61, 91, 79, 62, 90, 58, 101, 54, 27, 99, 95, 94, 34, 94, 34, 53, 49, 47, 53, 38, 63, 77, 51, 48, 49, 15, 50, 6, 67, 56, 27, 46, 66, 58, 48, 68, 21, 40, 22, 54, 67, 28, 13, 69, 33, 42, 70, 56, 13, 67, 71, 23, 74, 82, 50, 53, 93, 20, 58, 70, 42, 50, 60, 65, 77, 37, 56, 96, 70, 14, 48, 4, 101, 44, 36, 85, 66, 54, 93, 41, 41, 72, 66, 85, 82, 31, 36, 47, 30
              |8, 24, 47, 88, 21, 43, 60, 14, 37, 30, 65, 31, 24, 67, 51, 61, 52, 26, 27, 69, 72, 55, 51, 47, 42, 35, 77, 59, 23, 50, 52, 77, 38, 73, 50, 70, 13, 1, 65, 36, 24, 65, 74, 71, 73, 64, 28, 87, 19, 62, 5, 65, 50, 34, 37, 20, 25, 31, 10, 64, 20, 60, 25, 39, 27, 46, 30, 91, 45, 76, 15, 80, 17, 75, 50, 72, 53, 36, 47, 61, 76, 74, 47, 21, 11, 17, 21, 74, 45, 3, 58, 27, 63, 79, 49, 40, 6, 63, 59, 63, 23, 37, 63, 86, 26, 31, 61, 9, 79, 69, 32, 50, 1, 57, 77, 24, 68, 12, 97, 72, 45, 36, 53, 58, 45, 61, 61, 27, 80, 81, 48, 59, 59, 73, 34, 51, 58, 26, 50, 52, 40, 46, 62, 69, 62, 34, 23, 62, 45, 71, 92, 41, 31, 65, 35, 56, 89, 11, 59, 57, 21, 26, 18, 81, 51, 11, 48, 78, 40, 42, 44, 11, 18, 14, 53, 29, 66, 38, 33, 46, 89, 13, 74, 70, 77, 60, 14, 69, 39, 31, 30, 59, 64, 31, 80, 39, 36, 43, 59, 24, 54, 81, 23, 32, 58, 69, 29, 17, 29, 41, 81, 50, 79, 68, 53, 77, 49, 88, 44, 32, 86, 82, 81, 33, 81, 32, 42, 40, 44, 41, 29, 56, 66, 44, 36, 35, 1, 38, 20, 53, 48, 34, 33, 59, 45, 40, 59, 11, 35, 23, 41, 54, 32, 18, 66, 30, 29, 59, 52, 12, 54, 64, 13, 61, 71, 42, 43, 80, 23, 44, 59, 30, 41, 49, 56, 66, 25, 43, 82, 56, 20, 35, 17, 88, 42, 31, 71, 61, 49, 84, 32, 32, 58, 58, 72, 69, 20, 28, 38, 20
              |41, 64, 4, 54, 28, 51, 37, 44, 29, 52, 35, 26, 25, 47, 20, 43, 14, 70, 33, 27, 43, 6, 15, 30, 16, 35, 45, 40, 35, 30, 18, 52, 14, 38, 41, 21, 49, 49, 26, 47, 44, 16, 25, 23, 25, 16, 23, 54, 67, 31, 50, 61, 13, 59, 11, 68, 38, 33, 50, 23, 57, 69, 42, 37, 39, 31, 26, 45, 12, 34, 58, 39, 56, 42, 16, 30, 11, 39, 14, 72, 40, 43, 49, 69, 60, 62, 50, 26, 11, 50, 75, 66, 34, 50, 66, 44, 51, 29, 33, 35, 31, 57, 46, 47, 24, 47, 37, 57, 33, 45, 49, 29, 50, 22, 40, 62, 61, 56, 53, 43, 17, 62, 24, 34, 33, 45, 69, 22, 32, 33, 65, 49, 62, 26, 20, 60, 57, 50, 47, 70, 49, 36, 35, 34, 46, 54, 34, 14, 11, 47, 55, 47, 75, 45, 67, 76, 42, 54, 30, 13, 53, 23, 57, 35, 69, 49, 59, 30, 11, 6, 32, 60, 39, 39, 21, 23, 34, 34, 62, 44, 42, 61, 25, 26, 36, 17, 44, 33, 14, 18, 20, 14, 61, 46, 38, 59, 14, 5, 44, 27, 62, 52, 48, 64, 70, 20, 26, 39, 42, 32, 54, 24, 50, 54, 32, 29, 52, 46, 45, 69, 45, 46, 52, 67, 39, 65, 22, 35, 68, 33, 38, 47, 52, 60, 32, 15, 48, 27, 68, 7, 58, 72, 19, 65, 24, 39, 52, 46, 59, 64, 28, 6, 67, 61, 83, 61, 21, 49, 72, 54, 6, 69, 46, 37, 51, 54, 30, 33, 67, 5, 44, 38, 34, 22, 59, 28, 27, 28, 35, 15, 66, 24, 65, 44, 71, 47, 26, 72, 67, 55, 35, 47, 14, 58, 24, 29, 33, 38, 33, 42
              |54, 59, 40, 96, 45, 27, 80, 47, 66, 81, 14, 33, 43, 90, 23, 0, 30, 66, 34, 32, 16, 45, 29, 71, 57, 26, 22, 3, 63, 14, 26, 96, 52, 22, 81, 55, 51, 62, 69, 81, 73, 52, 50, 54, 60, 53, 54, 96, 72, 17, 65, 102, 30, 88, 43, 79, 68, 67, 54, 29, 53, 106, 37, 74, 70, 72, 59, 80, 32, 75, 75, 35, 77, 85, 59, 33, 54, 25, 30, 109, 82, 86, 21, 74, 68, 64, 75, 47, 53, 59, 109, 58, 78, 21, 100, 80, 58, 20, 76, 13, 39, 38, 2, 88, 42, 34, 81, 65, 67, 10, 35, 71, 61, 65, 28, 84, 103, 73, 88, 86, 27, 91, 67, 77, 73, 88, 106, 49, 49, 52, 98, 91, 101, 62, 55, 97, 97, 42, 15, 104, 84, 76, 78, 21, 3, 38, 38, 43, 53, 11, 96, 83, 70, 88, 93, 109, 76, 72, 16, 34, 48, 43, 77, 72, 102, 69, 95, 63, 37, 43, 18, 69, 64, 62, 23, 55, 17, 22, 48, 82, 75, 73, 49, 35, 31, 33, 47, 76, 35, 41, 51, 36, 102, 34, 77, 91, 49, 42, 86, 55, 99, 95, 42, 52, 107, 49, 58, 43, 73, 21, 21, 19, 93, 97, 12, 60, 90, 84, 83, 58, 84, 88, 95, 92, 79, 90, 25, 21, 98, 72, 32, 10, 95, 93, 68, 50, 61, 64, 73, 49, 94, 61, 53, 103, 65, 21, 93, 66, 88, 83, 68, 41, 55, 60, 118, 86, 50, 90, 105, 57, 48, 108, 67, 81, 94, 88, 19, 67, 84, 45, 86, 71, 20, 22, 98, 24, 39, 68, 66, 58, 80, 60, 70, 81, 99, 34, 64, 109, 100, 24, 29, 79, 56, 97, 51, 71, 42, 33, 23, 69
              |40, 41, 42, 100, 35, 9, 79, 32, 61, 71, 30, 24, 34, 89, 29, 19, 36, 48, 22, 45, 35, 50, 34, 68, 55, 14, 41, 18, 54, 19, 32, 96, 49, 40, 77, 63, 35, 47, 72, 73, 63, 59, 60, 63, 68, 60, 47, 100, 54, 31, 51, 97, 35, 77, 41, 62, 59, 59, 37, 41, 35, 98, 21, 68, 61, 68, 52, 89, 34, 80, 61, 51, 63, 88, 60, 47, 57, 10, 33, 100, 86, 88, 4, 56, 51, 46, 63, 59, 52, 44, 99, 39, 78, 40, 90, 73, 42, 34, 76, 29, 28, 19, 20, 93, 34, 16, 80, 48, 76, 29, 16, 69, 46, 67, 45, 70, 99, 58, 97, 88, 29, 79, 67, 76, 69, 85, 99, 42, 62, 64, 89, 87, 95, 69, 50, 89, 91, 23, 4, 94, 76, 72, 78, 37, 18, 19, 26, 51, 52, 30, 101, 75, 51, 87, 80, 99, 85, 57, 28, 42, 30, 35, 64, 80, 93, 55, 86, 72, 36, 43, 14, 53, 54, 50, 31, 49, 33, 13, 29, 76, 84, 57, 60, 48, 47, 42, 32, 79, 33, 36, 46, 44, 97, 16, 83, 81, 46, 43, 83, 47, 92, 97, 25, 33, 98, 58, 51, 29, 64, 14, 40, 25, 95, 94, 19, 69, 83, 91, 76, 39, 91, 92, 97, 79, 85, 77, 24, 11, 87, 67, 17, 10, 92, 84, 63, 46, 46, 60, 55, 52, 86, 42, 48, 96, 63, 8, 89, 53, 77, 69, 64, 46, 36, 42, 108, 74, 44, 87, 95, 40, 52, 101, 55, 80, 93, 80, 16, 75, 69, 46, 83, 63, 12, 26, 91, 38, 29, 64, 76, 61, 65, 56, 52, 89, 87, 16, 70, 100, 90, 43, 16, 70, 60, 91, 61, 75, 30, 19, 14, 58
              |11, 19, 43, 92, 18, 28, 66, 2, 43, 43, 53, 22, 21, 74, 42, 48, 45, 25, 16, 61, 60, 52, 43, 53, 44, 22, 66, 46, 31, 38, 44, 84, 39, 62, 58, 67, 4, 16, 67, 48, 36, 62, 69, 68, 70, 62, 31, 92, 25, 51, 20, 76, 43, 48, 35, 31, 35, 39, 6, 56, 11, 73, 10, 48, 37, 53, 35, 90, 38, 77, 30, 71, 32, 79, 52, 64, 52, 22, 40, 74, 79, 79, 32, 27, 20, 18, 35, 69, 45, 13, 72, 21, 68, 67, 63, 50, 11, 53, 64, 51, 14, 23, 49, 88, 22, 16, 67, 17, 78, 57, 17, 55, 15, 59, 67, 39, 78, 27, 97, 77, 37, 50, 57, 64, 52, 69, 74, 27, 74, 76, 61, 68, 71, 72, 36, 64, 69, 11, 36, 66, 52, 54, 67, 58, 48, 19, 12, 57, 45, 58, 95, 52, 30, 72, 50, 70, 88, 26, 48, 51, 9, 23, 33, 80, 65, 25, 61, 76, 35, 39, 32, 22, 28, 24, 44, 33, 55, 26, 21, 55, 87, 26, 69, 62, 67, 53, 2, 72, 33, 28, 32, 53, 75, 16, 81, 53, 36, 40, 66, 28, 67, 87, 9, 22, 72, 65, 34, 7, 40, 28, 69, 40, 84, 77, 41, 74, 60, 89, 54, 24, 88, 85, 87, 48, 82, 47, 32, 27, 58, 49, 16, 41, 75, 57, 43, 35, 15, 43, 26, 51, 61, 27, 35, 71, 50, 26, 68, 24, 49, 37, 47, 50, 23, 16, 80, 44, 29, 68, 66, 10, 52, 77, 26, 67, 78, 54, 31, 78, 38, 42, 66, 40, 28, 39, 68, 56, 18, 49, 80, 57, 33, 40, 23, 88, 57, 16, 70, 74, 63, 71, 19, 44, 57, 69, 68, 70, 12, 15, 25, 31
              |18, 10, 51, 100, 27, 28, 74, 11, 51, 48, 59, 29, 29, 82, 49, 51, 52, 17, 23, 68, 65, 60, 51, 61, 53, 27, 71, 50, 38, 44, 51, 92, 48, 68, 66, 75, 6, 19, 75, 54, 42, 70, 77, 76, 79, 70, 39, 100, 21, 57, 24, 83, 50, 52, 43, 29, 42, 46, 8, 63, 3, 78, 15, 55, 44, 60, 42, 99, 46, 86, 31, 78, 35, 87, 60, 71, 61, 26, 47, 79, 87, 87, 33, 22, 18, 13, 39, 77, 54, 15, 76, 12, 76, 72, 67, 57, 12, 59, 72, 57, 22, 20, 53, 97, 30, 17, 75, 16, 86, 61, 17, 64, 17, 68, 73, 41, 85, 29, 105, 86, 44, 54, 65, 72, 59, 76, 79, 36, 82, 83, 66, 75, 77, 80, 45, 69, 75, 10, 38, 71, 58, 61, 75, 64, 51, 17, 20, 65, 54, 62, 104, 58, 22, 80, 52, 74, 96, 29, 54, 58, 4, 31, 35, 89, 69, 29, 66, 84, 44, 48, 37, 21, 34, 30, 51, 41, 61, 31, 15, 62, 96, 25, 76, 70, 74, 60, 11, 81, 41, 36, 40, 61, 81, 18, 90, 58, 45, 49, 74, 36, 72, 95, 9, 14, 77, 73, 42, 15, 46, 34, 73, 47, 92, 84, 46, 82, 66, 98, 61, 16, 96, 94, 95, 50, 91, 50, 39, 32, 62, 56, 21, 44, 82, 62, 51, 44, 19, 51, 22, 60, 66, 19, 43, 77, 58, 30, 75, 29, 53, 39, 55, 58, 15, 9, 84, 47, 38, 75, 70, 7, 60, 82, 31, 75, 86, 60, 37, 86, 38, 50, 74, 47, 33, 46, 74, 63, 27, 57, 88, 65, 33, 48, 19, 97, 60, 17, 79, 79, 67, 76, 25, 50, 66, 75, 76, 79, 21, 20, 31, 37
              |57, 83, 50, 36, 52, 88, 13, 66, 25, 35, 82, 61, 52, 10, 67, 89, 61, 85, 65, 72, 90, 49, 61, 18, 32, 72, 92, 86, 37, 75, 64, 21, 37, 85, 9, 52, 69, 59, 32, 25, 36, 50, 61, 54, 50, 48, 39, 35, 75, 78, 55, 15, 60, 38, 46, 70, 34, 29, 67, 70, 77, 28, 71, 20, 32, 17, 34, 55, 57, 39, 56, 84, 51, 27, 32, 75, 38, 76, 60, 33, 31, 25, 88, 77, 68, 76, 42, 64, 37, 62, 38, 86, 19, 97, 34, 21, 65, 76, 17, 81, 60, 88, 91, 40, 52, 79, 14, 68, 51, 92, 81, 18, 60, 28, 86, 52, 14, 57, 56, 22, 62, 40, 23, 16, 17, 4, 27, 44, 69, 69, 33, 3, 20, 49, 35, 24, 13, 78, 88, 36, 23, 14, 18, 81, 91, 84, 63, 56, 37, 94, 42, 21, 90, 9, 48, 42, 55, 55, 76, 60, 76, 51, 52, 48, 35, 50, 26, 54, 52, 46, 74, 67, 41, 45, 68, 37, 81, 73, 89, 14, 57, 65, 62, 70, 82, 63, 66, 29, 54, 49, 40, 60, 15, 78, 43, 34, 40, 47, 4, 40, 24, 27, 75, 89, 31, 57, 35, 64, 31, 72, 101, 70, 25, 9, 77, 55, 16, 47, 17, 91, 44, 34, 27, 51, 41, 48, 64, 75, 41, 19, 71, 90, 7, 30, 24, 40, 58, 26, 76, 44, 24, 93, 37, 24, 23, 78, 7, 49, 38, 57, 22, 52, 90, 77, 44, 45, 42, 2, 39, 71, 45, 26, 47, 14, 13, 25, 72, 52, 61, 44, 4, 29, 74, 67, 18, 75, 57, 21, 56, 36, 64, 30, 74, 49, 47, 79, 44, 33, 35, 102, 70, 30, 40, 15, 58, 34, 59, 70, 72, 40
              |20, 42, 20, 72, 7, 35, 48, 21, 28, 42, 39, 8, 4, 57, 24, 40, 24, 48, 12, 41, 47, 29, 23, 36, 24, 19, 52, 37, 23, 26, 25, 66, 18, 47, 44, 44, 26, 29, 45, 41, 33, 39, 46, 45, 47, 39, 15, 71, 45, 36, 30, 65, 22, 48, 12, 48, 28, 27, 27, 36, 34, 67, 21, 36, 30, 36, 20, 67, 17, 55, 40, 53, 40, 59, 30, 44, 30, 23, 19, 69, 58, 59, 35, 47, 38, 40, 36, 47, 23, 28, 69, 43, 48, 55, 60, 41, 29, 36, 45, 38, 9, 37, 42, 67, 2, 28, 49, 36, 55, 46, 30, 37, 29, 38, 50, 47, 66, 38, 74, 58, 18, 51, 37, 45, 36, 53, 67, 9, 52, 54, 58, 54, 62, 49, 18, 57, 59, 29, 35, 64, 45, 39, 48, 42, 42, 34, 12, 35, 23, 48, 74, 43, 52, 55, 54, 69, 65, 36, 33, 29, 30, 3, 40, 57, 63, 32, 55, 53, 13, 16, 22, 39, 25, 23, 26, 16, 40, 20, 41, 44, 64, 41, 46, 42, 49, 32, 21, 51, 11, 5, 13, 31, 64, 26, 59, 51, 15, 17, 51, 15, 60, 67, 26, 43, 67, 42, 19, 16, 34, 20, 58, 24, 65, 62, 29, 51, 51, 67, 44, 47, 66, 64, 67, 54, 60, 52, 16, 22, 59, 35, 18, 38, 60, 54, 30, 15, 27, 27, 46, 28, 54, 50, 16, 64, 31, 25, 56, 29, 49, 47, 31, 27, 45, 38, 78, 48, 11, 54, 65, 32, 29, 69, 30, 49, 61, 49, 21, 55, 49, 19, 51, 31, 22, 22, 59, 38, 5, 32, 57, 34, 47, 23, 43, 66, 60, 28, 47, 69, 60, 60, 17, 39, 35, 59, 45, 48, 11, 18, 19, 29
              |59, 80, 69, 63, 60, 96, 41, 68, 39, 27, 101, 72, 62, 37, 84, 104, 80, 81, 74, 94, 108, 71, 80, 39, 51, 82, 112, 101, 42, 90, 83, 47, 54, 105, 29, 78, 70, 56, 59, 23, 34, 74, 86, 80, 77, 72, 50, 62, 68, 96, 52, 18, 79, 24, 62, 59, 37, 37, 67, 91, 77, 3, 77, 30, 35, 38, 45, 83, 74, 67, 48, 106, 42, 55, 54, 97, 61, 86, 77, 5, 59, 53, 98, 68, 62, 71, 36, 89, 57, 60, 10, 84, 47, 116, 10, 24, 63, 95, 44, 99, 68, 93, 106, 68, 63, 85, 42, 63, 78, 109, 87, 42, 58, 54, 107, 40, 22, 49, 84, 50, 78, 24, 48, 43, 35, 32, 4, 55, 94, 94, 11, 25, 9, 76, 50, 7, 15, 82, 99, 10, 20, 32, 46, 101, 106, 89, 71, 79, 57, 111, 69, 21, 84, 37, 30, 15, 83, 48, 94, 81, 78, 62, 42, 76, 10, 46, 9, 81, 68, 64, 87, 60, 43, 47, 86, 49, 100, 84, 90, 24, 85, 57, 87, 93, 104, 84, 68, 57, 70, 63, 53, 82, 17, 84, 71, 18, 56, 65, 31, 49, 5, 54, 79, 89, 3, 81, 46, 69, 31, 85, 120, 86, 51, 31, 93, 82, 16, 75, 22, 89, 72, 62, 54, 34, 70, 31, 79, 86, 19, 34, 79, 103, 30, 13, 36, 55, 56, 41, 68, 66, 10, 90, 51, 5, 44, 88, 21, 46, 23, 44, 39, 73, 89, 74, 16, 31, 54, 26, 13, 69, 67, 8, 44, 42, 38, 16, 85, 79, 48, 63, 31, 33, 86, 84, 10, 95, 67, 40, 84, 60, 53, 45, 68, 77, 26, 85, 71, 5, 11, 121, 80, 26, 64, 13, 84, 61, 66, 78, 83, 39
              |31, 22, 51, 107, 34, 12, 82, 21, 61, 63, 49, 29, 34, 91, 44, 39, 49, 28, 23, 62, 54, 60, 48, 70, 59, 21, 61, 38, 50, 36, 47, 100, 53, 59, 76, 75, 21, 35, 80, 67, 56, 70, 75, 76, 79, 71, 47, 106, 37, 49, 39, 95, 48, 68, 47, 46, 54, 57, 24, 57, 17, 93, 15, 66, 56, 69, 52, 100, 45, 89, 48, 70, 51, 94, 65, 64, 64, 17, 45, 94, 93, 94, 18, 38, 35, 29, 54, 74, 58, 31, 91, 19, 83, 60, 82, 69, 29, 52, 80, 48, 26, 3, 40, 101, 35, 8, 83, 33, 87, 49, 6, 72, 34, 73, 64, 58, 97, 45, 108, 93, 41, 70, 72, 79, 69, 86, 93, 42, 78, 80, 81, 86, 90, 81, 52, 83, 88, 8, 24, 86, 71, 72, 83, 55, 38, 1, 23, 64, 58, 50, 109, 71, 31, 89, 69, 90, 97, 45, 46, 55, 14, 36, 52, 90, 85, 45, 80, 84, 44, 50, 29, 38, 47, 43, 46, 49, 52, 24, 9, 74, 96, 42, 74, 64, 66, 57, 21, 86, 41, 40, 47, 58, 94, 9, 93, 73, 50, 50, 84, 45, 86, 102, 11, 13, 91, 72, 51, 22, 59, 27, 60, 40, 100, 95, 37, 82, 79, 101, 73, 19, 100, 99, 102, 67, 94, 66, 35, 24, 78, 66, 17, 30, 93, 77, 61, 49, 35, 60, 37, 62, 80, 22, 50, 91, 66, 21, 87, 44, 69, 55, 64, 57, 16, 24, 100, 64, 45, 86, 86, 24, 61, 96, 46, 83, 95, 74, 30, 87, 55, 53, 84, 59, 25, 40, 87, 56, 30, 66, 88, 69, 50, 56, 35, 99, 76, 8, 81, 94, 83, 63, 21, 64, 69, 88, 74, 83, 26, 17, 24, 51
              |61, 87, 49, 29, 55, 90, 9, 69, 28, 42, 81, 63, 54, 3, 66, 89, 60, 90, 67, 69, 88, 47, 60, 19, 32, 74, 90, 86, 41, 75, 64, 14, 38, 83, 14, 48, 73, 64, 27, 32, 42, 46, 57, 50, 46, 44, 42, 28, 81, 77, 61, 20, 59, 45, 46, 76, 39, 33, 72, 68, 82, 34, 74, 25, 37, 19, 37, 48, 57, 33, 62, 81, 57, 20, 30, 72, 36, 78, 59, 39, 24, 18, 90, 82, 73, 81, 48, 60, 36, 67, 45, 90, 14, 95, 41, 27, 69, 75, 13, 80, 63, 91, 91, 33, 54, 82, 9, 73, 45, 91, 84, 18, 65, 25, 83, 59, 18, 62, 49, 15, 62, 47, 22, 13, 20, 4, 33, 46, 65, 65, 40, 10, 26, 44, 37, 31, 20, 81, 89, 43, 30, 18, 13, 80, 91, 87, 66, 53, 36, 93, 35, 27, 95, 2, 55, 49, 49, 60, 76, 58, 80, 53, 58, 42, 42, 56, 33, 49, 52, 46, 75, 72, 46, 50, 67, 40, 80, 74, 93, 21, 51, 70, 58, 67, 79, 61, 69, 23, 55, 51, 42, 58, 20, 81, 36, 41, 41, 46, 6, 43, 31, 20, 78, 93, 38, 53, 38, 67, 36, 73, 100, 69, 17, 9, 77, 50, 23, 40, 24, 95, 37, 27, 20, 58, 35, 55, 65, 76, 48, 23, 73, 91, 7, 37, 28, 41, 63, 29, 82, 42, 31, 97, 39, 30, 24, 79, 14, 54, 45, 63, 25, 50, 94, 82, 50, 52, 44, 9, 46, 75, 43, 32, 52, 9, 7, 32, 73, 47, 67, 43, 6, 34, 75, 67, 25, 73, 59, 23, 51, 33, 71, 32, 80, 43, 54, 82, 39, 39, 42, 100, 72, 36, 37, 22, 54, 28, 62, 72, 73, 45
              |53, 79, 34, 31, 44, 77, 7, 60, 21, 43, 65, 50, 43, 17, 50, 73, 44, 83, 55, 53, 72, 30, 45, 11, 18, 61, 74, 70, 35, 60, 48, 23, 25, 67, 17, 33, 64, 57, 13, 34, 39, 30, 42, 35, 31, 28, 31, 30, 76, 61, 55, 34, 43, 48, 32, 72, 35, 27, 63, 51, 73, 46, 63, 23, 34, 12, 28, 39, 41, 23, 59, 65, 55, 18, 14, 56, 20, 65, 44, 50, 19, 17, 76, 77, 68, 74, 46, 45, 21, 60, 55, 82, 6, 79, 48, 28, 62, 59, 3, 65, 51, 80, 76, 29, 42, 70, 7, 66, 33, 75, 72, 7, 59, 9, 67, 59, 33, 59, 43, 16, 46, 51, 6, 4, 15, 16, 45, 35, 50, 50, 47, 22, 38, 30, 25, 40, 32, 70, 75, 52, 33, 16, 5, 64, 76, 76, 54, 37, 21, 77, 35, 30, 88, 15, 58, 58, 39, 57, 60, 42, 70, 41, 56, 31, 51, 51, 40, 35, 37, 31, 60, 67, 40, 43, 51, 29, 64, 60, 82, 24, 40, 66, 43, 51, 63, 45, 60, 14, 40, 38, 30, 42, 34, 69, 27, 45, 28, 31, 16, 34, 41, 25, 68, 83, 49, 38, 29, 56, 34, 59, 84, 54, 22, 25, 62, 36, 31, 34, 27, 86, 31, 25, 25, 60, 27, 57, 50, 62, 54, 18, 61, 76, 23, 43, 22, 28, 56, 20, 76, 25, 38, 89, 27, 42, 12, 65, 26, 49, 48, 62, 16, 34, 85, 74, 62, 53, 33, 21, 55, 67, 27, 45, 48, 7, 21, 37, 58, 34, 66, 28, 16, 30, 61, 52, 36, 57, 47, 14, 38, 17, 68, 22, 74, 35, 59, 70, 26, 50, 49, 84, 59, 36, 21, 34, 39, 16, 51, 60, 59, 41
              |5, 28, 41, 82, 16, 43, 55, 14, 32, 28, 61, 27, 19, 62, 47, 58, 47, 32, 24, 64, 69, 49, 46, 42, 37, 33, 74, 56, 18, 47, 48, 72, 33, 69, 45, 64, 15, 6, 59, 33, 21, 59, 68, 66, 67, 59, 22, 82, 25, 58, 7, 62, 45, 33, 32, 25, 21, 26, 13, 59, 23, 58, 24, 34, 23, 41, 24, 85, 40, 70, 17, 76, 18, 69, 45, 67, 47, 35, 42, 58, 70, 69, 46, 26, 17, 22, 19, 69, 39, 8, 56, 32, 57, 76, 47, 36, 10, 59, 53, 59, 19, 38, 60, 80, 21, 31, 56, 15, 73, 66, 33, 45, 7, 51, 73, 26, 64, 15, 91, 67, 41, 35, 47, 53, 39, 56, 58, 21, 75, 76, 46, 54, 56, 68, 28, 48, 54, 27, 49, 51, 37, 41, 57, 65, 59, 34, 20, 57, 39, 68, 86, 37, 36, 60, 35, 55, 83, 13, 55, 52, 23, 21, 19, 75, 50, 11, 45, 72, 35, 37, 41, 17, 13, 9, 49, 24, 62, 36, 36, 41, 83, 18, 68, 65, 72, 55, 14, 64, 34, 26, 25, 54, 60, 31, 75, 38, 30, 38, 54, 19, 51, 76, 24, 35, 56, 64, 23, 16, 25, 38, 78, 46, 73, 64, 49, 71, 45, 82, 40, 36, 80, 76, 76, 34, 75, 33, 38, 38, 43, 36, 28, 54, 62, 42, 31, 30, 4, 32, 26, 48, 45, 38, 27, 56, 40, 38, 54, 9, 34, 25, 36, 49, 36, 23, 65, 29, 23, 55, 51, 16, 48, 61, 11, 56, 66, 39, 40, 74, 27, 39, 54, 26, 38, 45, 53, 61, 21, 38, 77, 51, 24, 30, 23, 82, 42, 31, 65, 58, 47, 80, 30, 29, 52, 54, 67, 63, 16, 26, 35, 16
              |30, 8, 67, 113, 42, 42, 85, 26, 62, 52, 76, 46, 44, 92, 66, 68, 69, 2, 40, 85, 82, 76, 68, 72, 67, 44, 88, 66, 48, 61, 68, 103, 62, 85, 75, 91, 21, 26, 89, 60, 48, 86, 94, 93, 95, 86, 52, 112, 11, 74, 29, 89, 67, 54, 59, 22, 50, 56, 20, 80, 15, 82, 32, 64, 52, 72, 55, 114, 63, 100, 31, 95, 36, 100, 74, 88, 76, 43, 64, 81, 100, 99, 48, 12, 16, 9, 44, 93, 68, 23, 77, 11, 88, 88, 69, 64, 21, 77, 84, 74, 39, 32, 69, 110, 46, 33, 87, 17, 102, 77, 33, 75, 24, 81, 90, 40, 92, 29, 120, 98, 61, 55, 78, 83, 70, 86, 83, 50, 99, 100, 68, 84, 82, 96, 58, 73, 82, 26, 53, 72, 64, 71, 87, 81, 67, 30, 37, 82, 68, 79, 117, 65, 6, 90, 51, 74, 112, 31, 71, 75, 20, 47, 36, 104, 71, 34, 70, 100, 60, 64, 54, 18, 43, 40, 68, 54, 78, 48, 22, 70, 111, 22, 93, 87, 91, 77, 26, 94, 58, 52, 54, 77, 88, 34, 104, 61, 59, 64, 84, 49, 76, 107, 26, 19, 79, 89, 54, 31, 54, 51, 89, 64, 104, 93, 63, 98, 73, 112, 68, 14, 110, 107, 107, 48, 105, 49, 57, 49, 62, 67, 38, 59, 91, 66, 61, 58, 27, 63, 11, 75, 71, 13, 57, 81, 70, 47, 83, 35, 55, 36, 66, 74, 16, 9, 84, 48, 52, 84, 71, 16, 76, 86, 37, 87, 96, 65, 54, 102, 34, 66, 84, 55, 50, 63, 80, 80, 43, 68, 104, 80, 27, 60, 11, 112, 58, 33, 94, 81, 69, 92, 42, 56, 81, 81, 93, 93, 37, 37, 48, 44
              |62, 86, 26, 37, 49, 73, 32, 65, 39, 64, 48, 48, 47, 41, 38, 60, 31, 91, 54, 32, 53, 17, 32, 34, 27, 57, 53, 57, 50, 48, 34, 41, 30, 47, 43, 7, 70, 69, 14, 56, 58, 8, 16, 9, 5, 6, 40, 37, 87, 44, 68, 60, 31, 70, 32, 87, 52, 45, 71, 32, 78, 72, 64, 45, 52, 35, 41, 23, 33, 15, 75, 41, 72, 28, 20, 34, 16, 61, 34, 77, 24, 30, 70, 89, 80, 83, 64, 19, 23, 70, 81, 87, 27, 59, 73, 52, 71, 41, 29, 48, 53, 79, 62, 28, 45, 69, 32, 77, 11, 58, 71, 30, 70, 18, 45, 78, 59, 74, 31, 31, 37, 73, 24, 30, 38, 42, 72, 42, 24, 23, 72, 49, 64, 5, 35, 66, 58, 72, 66, 77, 57, 41, 28, 44, 63, 75, 56, 17, 23, 60, 36, 54, 96, 40, 80, 84, 21, 72, 44, 25, 74, 44, 73, 14, 76, 66, 66, 10, 33, 28, 52, 80, 56, 57, 37, 40, 46, 55, 84, 49, 20, 80, 17, 29, 40, 27, 65, 20, 35, 39, 38, 24, 60, 68, 17, 69, 32, 27, 42, 45, 67, 38, 70, 86, 75, 13, 41, 60, 54, 52, 64, 42, 37, 50, 50, 10, 56, 25, 52, 91, 25, 29, 38, 81, 19, 78, 43, 56, 78, 40, 60, 66, 48, 68, 42, 33, 67, 37, 88, 16, 64, 94, 36, 68, 30, 60, 52, 64, 70, 80, 36, 20, 88, 82, 88, 74, 40, 48, 80, 75, 16, 71, 63, 32, 43, 61, 50, 11, 84, 25, 42, 50, 55, 40, 62, 38, 49, 34, 14, 13, 84, 36, 85, 23, 82, 69, 4, 77, 74, 64, 56, 58, 10, 60, 14, 14, 55, 60, 54, 58
              |70, 89, 81, 70, 72, 107, 51, 79, 51, 37, 113, 84, 73, 46, 96, 116, 92, 89, 85, 106, 120, 83, 92, 50, 63, 94, 124, 113, 53, 102, 95, 54, 66, 117, 40, 89, 80, 66, 69, 35, 45, 86, 98, 91, 88, 84, 62, 69, 76, 108, 62, 25, 91, 33, 74, 66, 48, 49, 77, 103, 87, 11, 88, 42, 47, 49, 57, 92, 86, 77, 56, 118, 51, 64, 66, 109, 72, 97, 89, 7, 68, 62, 109, 76, 71, 80, 46, 100, 69, 70, 10, 93, 57, 128, 18, 36, 73, 108, 54, 111, 80, 104, 118, 77, 74, 96, 52, 72, 89, 121, 98, 53, 68, 65, 119, 47, 28, 58, 93, 59, 90, 32, 59, 53, 47, 42, 11, 67, 106, 106, 19, 35, 18, 87, 62, 19, 25, 92, 111, 15, 32, 44, 56, 113, 118, 100, 82, 91, 69, 123, 77, 33, 92, 46, 36, 14, 93, 57, 106, 93, 88, 74, 51, 86, 16, 56, 21, 91, 80, 76, 99, 69, 54, 58, 98, 61, 113, 96, 100, 35, 95, 65, 98, 105, 116, 96, 79, 67, 82, 75, 65, 94, 24, 96, 81, 28, 68, 77, 41, 61, 17, 61, 89, 99, 9, 93, 58, 80, 43, 96, 132, 98, 59, 38, 105, 93, 28, 84, 34, 98, 81, 70, 61, 40, 79, 38, 91, 98, 25, 46, 90, 115, 38, 23, 48, 67, 66, 53, 76, 78, 22, 99, 63, 15, 56, 100, 31, 57, 32, 51, 51, 85, 99, 83, 8, 39, 66, 36, 16, 79, 79, 12, 55, 52, 46, 28, 97, 90, 55, 75, 41, 45, 98, 96, 21, 107, 78, 52, 94, 72, 60, 57, 76, 87, 30, 96, 82, 7, 18, 133, 91, 38, 75, 23, 95, 72, 77, 89, 95, 50
              |40, 52, 68, 87, 48, 76, 60, 48, 43, 18, 94, 60, 51, 61, 79, 93, 77, 50, 59, 94, 102, 74, 76, 50, 55, 67, 106, 90, 34, 80, 78, 73, 55, 101, 46, 86, 46, 32, 73, 28, 24, 81, 93, 88, 87, 80, 46, 86, 37, 90, 28, 50, 75, 13, 59, 27, 30, 37, 44, 89, 51, 37, 58, 38, 30, 49, 43, 100, 70, 84, 19, 106, 16, 76, 62, 97, 67, 69, 73, 35, 79, 75, 80, 37, 34, 42, 19, 94, 60, 36, 30, 56, 65, 109, 24, 33, 39, 91, 61, 92, 53, 70, 95, 89, 52, 65, 61, 35, 91, 100, 66, 54, 34, 65, 104, 9, 53, 22, 104, 72, 72, 11, 60, 60, 46, 55, 38, 48, 100, 101, 23, 50, 41, 87, 49, 31, 43, 59, 83, 25, 29, 45, 64, 97, 94, 67, 55, 82, 60, 102, 93, 32, 53, 60, 4, 26, 99, 22, 88, 80, 54, 52, 16, 91, 25, 24, 28, 92, 64, 63, 75, 31, 30, 32, 81, 45, 95, 70, 65, 38, 100, 27, 93, 94, 103, 84, 48, 74, 64, 56, 49, 82, 48, 65, 88, 18, 54, 64, 53, 42, 34, 79, 57, 63, 34, 88, 43, 50, 28, 72, 112, 79, 76, 58, 83, 92, 36, 94, 35, 61, 92, 84, 79, 1, 88, 4, 70, 72, 15, 43, 62, 88, 57, 23, 40, 53, 33, 45, 37, 70, 30, 61, 49, 38, 52, 73, 47, 26, 14, 12, 46, 75, 62, 46, 36, 8, 48, 50, 24, 43, 72, 42, 25, 61, 64, 27, 74, 92, 15, 63, 53, 32, 72, 77, 39, 92, 54, 48, 96, 69, 21, 46, 37, 96, 10, 65, 83, 35, 23, 114, 64, 25, 72, 42, 90, 76, 50, 61, 70, 26
              |61, 87, 39, 23, 51, 84, 8, 67, 28, 49, 69, 57, 50, 15, 55, 79, 49, 91, 62, 56, 76, 34, 49, 19, 26, 67, 77, 75, 42, 65, 53, 17, 32, 70, 22, 33, 72, 65, 12, 40, 47, 32, 43, 35, 30, 30, 39, 22, 83, 65, 63, 35, 48, 54, 39, 80, 42, 35, 71, 55, 80, 49, 70, 30, 41, 19, 36, 34, 47, 18, 67, 67, 62, 10, 20, 58, 24, 72, 49, 53, 12, 9, 83, 85, 76, 82, 53, 45, 27, 67, 59, 90, 2, 83, 53, 34, 70, 63, 7, 69, 58, 87, 81, 22, 49, 77, 7, 74, 30, 79, 79, 15, 67, 13, 70, 66, 33, 66, 36, 8, 52, 57, 13, 8, 22, 17, 48, 42, 50, 50, 52, 24, 41, 29, 33, 44, 34, 78, 81, 56, 39, 22, 3, 67, 81, 83, 61, 40, 27, 81, 27, 36, 96, 14, 65, 62, 35, 64, 64, 46, 78, 48, 63, 27, 55, 59, 45, 33, 43, 37, 66, 75, 48, 51, 56, 37, 68, 67, 90, 29, 36, 74, 43, 54, 65, 49, 67, 8, 46, 45, 38, 46, 35, 76, 22, 51, 35, 37, 17, 42, 44, 18, 75, 91, 52, 39, 36, 64, 41, 65, 87, 59, 15, 23, 67, 35, 35, 27, 33, 94, 25, 17, 18, 66, 21, 63, 56, 69, 59, 26, 68, 82, 22, 48, 30, 35, 64, 28, 84, 30, 43, 96, 35, 44, 20, 72, 28, 57, 54, 69, 24, 38, 92, 82, 65, 60, 40, 23, 59, 75, 31, 47, 55, 7, 17, 42, 64, 31, 73, 34, 17, 38, 67, 57, 39, 61, 54, 22, 36, 21, 76, 30, 82, 29, 65, 77, 24, 53, 54, 87, 66, 43, 23, 36, 40, 13, 59, 67, 66, 49
              |29, 55, 35, 57, 25, 62, 29, 37, 7, 18, 65, 37, 26, 35, 49, 68, 45, 58, 39, 60, 73, 39, 45, 16, 19, 47, 77, 65, 9, 54, 48, 46, 20, 70, 19, 50, 41, 31, 38, 13, 12, 45, 57, 52, 51, 44, 14, 57, 49, 61, 28, 37, 43, 25, 26, 45, 7, 1, 39, 57, 49, 38, 44, 8, 6, 16, 9, 65, 39, 49, 32, 73, 28, 45, 26, 64, 31, 51, 42, 41, 46, 44, 63, 50, 41, 48, 19, 59, 25, 34, 42, 58, 33, 81, 33, 12, 37, 60, 28, 64, 34, 61, 70, 57, 27, 52, 30, 40, 56, 73, 54, 20, 33, 30, 73, 32, 39, 31, 69, 42, 42, 28, 25, 28, 13, 30, 38, 19, 65, 65, 31, 28, 34, 51, 14, 29, 30, 50, 64, 37, 16, 15, 32, 66, 70, 57, 36, 47, 25, 75, 62, 15, 62, 34, 34, 43, 64, 29, 59, 47, 48, 26, 29, 56, 35, 24, 27, 56, 33, 30, 51, 40, 14, 17, 50, 13, 65, 48, 61, 16, 64, 39, 57, 60, 70, 51, 37, 41, 34, 27, 17, 48, 36, 51, 53, 25, 21, 31, 27, 14, 31, 50, 47, 61, 39, 52, 10, 36, 8, 49, 84, 50, 48, 37, 57, 56, 22, 60, 16, 63, 58, 52, 50, 35, 53, 32, 43, 51, 34, 10, 45, 67, 35, 26, 5, 20, 30, 9, 50, 35, 26, 65, 16, 35, 17, 53, 29, 22, 25, 35, 11, 40, 62, 49, 50, 28, 18, 29, 39, 43, 36, 40, 21, 30, 39, 21, 49, 56, 39, 29, 27, 4, 50, 48, 31, 61, 31, 13, 60, 33, 41, 10, 48, 61, 37, 52, 47, 41, 33, 86, 45, 13, 36, 31, 55, 41, 32, 44, 48, 14
              |26, 52, 22, 58, 17, 52, 32, 32, 11, 30, 52, 25, 16, 41, 35, 55, 32, 57, 29, 47, 59, 27, 31, 19, 11, 36, 63, 52, 13, 41, 34, 50, 8, 57, 27, 40, 37, 32, 33, 27, 23, 35, 46, 42, 42, 34, 4, 57, 50, 47, 31, 48, 30, 37, 13, 49, 17, 12, 36, 43, 45, 51, 36, 19, 17, 19, 4, 59, 25, 44, 38, 60, 35, 45, 19, 51, 22, 40, 28, 54, 45, 44, 52, 52, 43, 47, 28, 47, 14, 33, 55, 55, 33, 67, 46, 25, 35, 47, 30, 50, 24, 53, 57, 54, 16, 44, 33, 41, 48, 60, 46, 21, 33, 25, 59, 41, 49, 36, 65, 43, 29, 40, 22, 29, 19, 36, 51, 8, 53, 54, 45, 37, 46, 43, 2, 42, 42, 43, 52, 50, 30, 22, 33, 53, 57, 49, 27, 36, 14, 62, 61, 28, 62, 39, 46, 56, 57, 34, 45, 34, 43, 15, 36, 49, 49, 29, 40, 48, 19, 17, 39, 43, 18, 19, 37, 2, 52, 37, 55, 27, 57, 43, 46, 47, 57, 38, 32, 38, 21, 14, 4, 35, 47, 42, 49, 38, 8, 17, 34, 7, 44, 52, 40, 56, 52, 41, 4, 29, 21, 37, 71, 37, 50, 45, 44, 47, 34, 56, 28, 59, 55, 51, 52, 46, 49, 43, 30, 39, 47, 17, 35, 55, 43, 40, 13, 7, 30, 10, 51, 24, 39, 61, 2, 48, 15, 42, 39, 26, 38, 43, 14, 28, 57, 47, 64, 39, 6, 37, 52, 40, 25, 53, 25, 33, 45, 34, 37, 49, 46, 16, 34, 17, 38, 35, 43, 47, 21, 15, 52, 25, 47, 6, 49, 56, 50, 44, 40, 54, 47, 72, 34, 26, 27, 43, 44, 37, 24, 34, 36, 21
              |61, 87, 35, 24, 50, 81, 14, 67, 30, 53, 64, 54, 49, 21, 51, 74, 44, 91, 60, 50, 71, 29, 45, 21, 24, 65, 72, 71, 44, 61, 48, 22, 30, 65, 27, 27, 71, 66, 6, 44, 49, 26, 36, 29, 24, 24, 38, 23, 85, 60, 64, 41, 44, 58, 36, 82, 44, 37, 71, 49, 80, 54, 68, 33, 43, 22, 36, 29, 43, 13, 69, 61, 65, 11, 17, 52, 20, 69, 45, 59, 10, 12, 80, 86, 77, 82, 56, 39, 25, 68, 64, 89, 8, 77, 58, 38, 70, 57, 11, 64, 57, 85, 76, 20, 48, 75, 13, 75, 24, 74, 77, 17, 67, 10, 64, 69, 40, 68, 33, 12, 48, 61, 13, 12, 25, 23, 54, 42, 44, 43, 57, 30, 46, 23, 33, 49, 40, 77, 78, 61, 43, 26, 9, 62, 77, 81, 60, 34, 25, 76, 26, 40, 96, 20, 68, 68, 29, 66, 60, 41, 77, 47, 66, 21, 60, 61, 50, 27, 40, 34, 63, 76, 50, 52, 51, 37, 63, 64, 89, 34, 30, 75, 37, 48, 59, 43, 67, 4, 43, 43, 37, 40, 42, 74, 17, 55, 33, 34, 23, 42, 50, 21, 74, 90, 58, 32, 37, 63, 44, 62, 82, 55, 19, 30, 63, 29, 40, 23, 37, 93, 21, 17, 21, 70, 16, 67, 53, 66, 64, 28, 66, 78, 29, 53, 32, 34, 64, 29, 85, 25, 48, 96, 34, 50, 21, 69, 34, 58, 58, 72, 26, 33, 92, 82, 71, 63, 39, 29, 64, 75, 26, 53, 57, 13, 23, 47, 61, 25, 76, 31, 23, 40, 64, 53, 45, 55, 53, 24, 30, 16, 78, 30, 83, 25, 69, 75, 18, 59, 59, 82, 64, 47, 18, 42, 33, 7, 57, 65, 63, 51
              |35, 32, 46, 103, 34, 2, 81, 27, 61, 68, 39, 25, 34, 90, 36, 28, 42, 39, 21, 53, 44, 55, 40, 69, 57, 15, 50, 27, 52, 27, 39, 98, 51, 48, 77, 69, 28, 42, 76, 71, 60, 64, 67, 69, 73, 65, 47, 103, 47, 39, 46, 97, 41, 73, 43, 55, 57, 59, 31, 49, 27, 96, 17, 67, 59, 69, 52, 94, 39, 85, 55, 60, 58, 91, 62, 55, 60, 11, 38, 98, 89, 91, 7, 48, 44, 38, 59, 66, 55, 38, 96, 30, 81, 49, 87, 71, 36, 42, 78, 37, 26, 10, 29, 97, 34, 9, 82, 41, 81, 38, 9, 70, 40, 70, 54, 65, 98, 52, 102, 90, 34, 75, 69, 78, 69, 86, 97, 42, 70, 72, 86, 87, 93, 75, 51, 87, 90, 16, 13, 91, 74, 72, 81, 45, 27, 10, 23, 57, 55, 39, 105, 74, 42, 88, 75, 95, 91, 52, 36, 48, 22, 35, 59, 85, 90, 51, 84, 78, 40, 46, 21, 46, 51, 47, 38, 49, 42, 17, 20, 76, 90, 50, 66, 56, 56, 49, 27, 83, 37, 37, 46, 50, 96, 9, 88, 77, 48, 46, 84, 46, 90, 100, 18, 24, 96, 65, 51, 25, 62, 19, 49, 32, 98, 95, 27, 75, 82, 96, 75, 30, 95, 96, 100, 74, 89, 73, 29, 16, 83, 67, 15, 19, 93, 81, 62, 48, 41, 60, 47, 57, 84, 33, 49, 94, 64, 12, 88, 49, 74, 63, 64, 51, 27, 34, 105, 70, 44, 87, 91, 33, 56, 99, 51, 82, 94, 77, 22, 81, 63, 49, 84, 61, 17, 33, 90, 46, 29, 65, 82, 65, 58, 56, 45, 94, 82, 9, 75, 98, 87, 52, 16, 67, 64, 90, 67, 79, 28, 16, 17, 55
              |47, 70, 9, 52, 34, 55, 38, 49, 34, 57, 34, 31, 31, 48, 21, 44, 14, 76, 38, 23, 41, 1, 15, 33, 21, 39, 43, 41, 40, 32, 18, 52, 19, 36, 44, 16, 55, 56, 25, 52, 50, 11, 19, 17, 20, 11, 29, 52, 73, 30, 56, 64, 14, 64, 17, 74, 44, 38, 55, 20, 62, 72, 47, 42, 44, 34, 32, 41, 15, 31, 64, 35, 62, 41, 18, 25, 12, 43, 16, 76, 38, 42, 52, 75, 66, 68, 55, 20, 15, 56, 79, 71, 35, 48, 71, 48, 57, 28, 34, 34, 37, 61, 46, 44, 30, 52, 38, 63, 28, 44, 54, 31, 56, 22, 36, 68, 64, 62, 48, 43, 20, 67, 26, 35, 36, 47, 72, 28, 26, 27, 69, 52, 66, 21, 25, 65, 60, 55, 49, 75, 54, 40, 35, 32, 47, 58, 39, 8, 15, 46, 52, 51, 81, 47, 73, 81, 38, 60, 29, 11, 58, 29, 63, 31, 73, 55, 64, 25, 16, 12, 35, 66, 45, 45, 21, 29, 33, 37, 67, 48, 37, 67, 19, 21, 33, 14, 49, 32, 18, 24, 26, 11, 64, 50, 35, 64, 20, 11, 46, 33, 66, 51, 53, 69, 74, 14, 31, 44, 47, 35, 52, 25, 49, 56, 33, 23, 56, 42, 50, 74, 42, 44, 51, 73, 36, 70, 25, 38, 73, 37, 42, 49, 54, 64, 37, 21, 54, 31, 74, 6, 62, 77, 25, 69, 28, 42, 55, 52, 64, 70, 32, 3, 72, 67, 87, 66, 27, 51, 77, 60, 4, 73, 52, 38, 52, 58, 33, 28, 73, 11, 46, 43, 37, 24, 63, 26, 33, 31, 29, 15, 72, 29, 71, 40, 77, 52, 21, 76, 72, 53, 39, 52, 12, 62, 17, 27, 39, 42, 36, 48
              |50, 73, 14, 44, 37, 62, 31, 53, 30, 55, 42, 36, 34, 41, 29, 52, 22, 79, 43, 29, 49, 7, 23, 27, 17, 46, 50, 49, 39, 39, 26, 44, 18, 43, 38, 14, 58, 57, 17, 48, 48, 9, 21, 16, 16, 8, 29, 44, 75, 38, 57, 57, 22, 61, 20, 75, 42, 35, 59, 28, 66, 67, 52, 37, 42, 28, 30, 35, 22, 24, 64, 41, 61, 33, 12, 32, 5, 50, 24, 71, 30, 34, 59, 77, 68, 71, 54, 23, 12, 58, 74, 75, 27, 56, 66, 44, 59, 35, 27, 42, 41, 67, 54, 37, 33, 57, 31, 65, 23, 52, 60, 25, 58, 15, 43, 67, 57, 63, 43, 35, 27, 64, 19, 27, 31, 40, 67, 30, 29, 29, 65, 45, 60, 17, 24, 60, 54, 60, 57, 70, 49, 34, 27, 40, 55, 64, 44, 13, 12, 54, 45, 47, 84, 39, 70, 77, 33, 60, 37, 19, 62, 32, 62, 25, 69, 55, 59, 22, 21, 16, 42, 68, 44, 45, 29, 28, 41, 44, 72, 43, 32, 68, 21, 28, 39, 22, 53, 24, 24, 27, 26, 18, 57, 56, 28, 60, 20, 15, 39, 33, 61, 43, 58, 74, 69, 16, 30, 48, 44, 42, 60, 33, 41, 49, 41, 21, 50, 36, 45, 79, 35, 36, 43, 71, 29, 68, 32, 45, 70, 33, 48, 57, 47, 60, 33, 21, 55, 28, 76, 4, 57, 81, 25, 63, 22, 49, 49, 52, 61, 69, 28, 11, 76, 70, 82, 64, 28, 45, 73, 63, 4, 67, 52, 31, 44, 54, 40, 23, 73, 13, 39, 40, 44, 31, 57, 34, 37, 26, 26, 7, 73, 26, 73, 34, 74, 57, 16, 71, 67, 60, 45, 49, 4, 55, 18, 19, 43, 48, 43, 47
              |61, 81, 71, 64, 62, 97, 43, 70, 41, 28, 103, 74, 64, 39, 86, 106, 82, 81, 76, 96, 110, 73, 82, 41, 53, 84, 114, 103, 43, 92, 85, 49, 57, 107, 31, 80, 71, 57, 61, 25, 35, 77, 89, 82, 79, 75, 52, 64, 69, 98, 53, 20, 81, 25, 64, 60, 38, 39, 69, 93, 78, 4, 79, 33, 37, 40, 47, 85, 76, 69, 48, 108, 43, 57, 57, 99, 63, 87, 79, 3, 61, 55, 100, 69, 63, 72, 37, 91, 59, 61, 8, 85, 49, 118, 10, 26, 64, 98, 46, 101, 70, 94, 108, 70, 64, 87, 44, 64, 80, 111, 88, 44, 59, 56, 109, 40, 23, 50, 86, 52, 80, 25, 50, 45, 37, 34, 5, 57, 97, 97, 11, 27, 11, 78, 52, 9, 17, 83, 101, 9, 22, 34, 48, 103, 108, 90, 72, 81, 59, 113, 71, 23, 85, 39, 30, 13, 86, 49, 96, 83, 79, 64, 43, 78, 9, 47, 11, 83, 70, 66, 89, 61, 44, 48, 88, 51, 103, 86, 92, 26, 87, 57, 89, 95, 106, 87, 70, 59, 72, 65, 55, 84, 19, 86, 73, 19, 58, 67, 34, 51, 7, 55, 80, 90, 1, 84, 48, 70, 33, 86, 122, 88, 53, 32, 95, 84, 18, 77, 24, 90, 74, 64, 55, 34, 72, 32, 81, 88, 19, 36, 81, 105, 32, 14, 38, 57, 57, 43, 69, 68, 12, 91, 53, 7, 46, 90, 23, 48, 24, 44, 41, 75, 90, 75, 14, 32, 56, 28, 12, 70, 70, 8, 46, 44, 40, 18, 87, 82, 48, 65, 34, 35, 88, 86, 12, 98, 68, 42, 86, 63, 54, 47, 68, 80, 25, 87, 73, 3, 11, 123, 81, 28, 66, 15, 86, 63, 68, 79, 85, 41
              |48, 70, 9, 51, 35, 56, 37, 50, 33, 57, 35, 32, 32, 47, 22, 45, 15, 76, 38, 23, 42, 0, 16, 33, 20, 40, 43, 42, 40, 33, 19, 51, 19, 37, 43, 15, 55, 56, 24, 51, 50, 10, 19, 17, 19, 11, 29, 51, 73, 31, 56, 63, 15, 64, 18, 75, 44, 38, 56, 21, 63, 72, 47, 41, 44, 33, 31, 40, 16, 30, 64, 35, 62, 40, 17, 26, 11, 44, 17, 76, 37, 41, 53, 75, 66, 68, 55, 20, 14, 56, 79, 72, 34, 49, 70, 48, 57, 28, 34, 35, 37, 62, 47, 43, 30, 52, 38, 64, 27, 45, 55, 30, 56, 22, 37, 68, 63, 62, 47, 42, 21, 67, 25, 34, 36, 46, 72, 28, 26, 27, 69, 51, 65, 21, 25, 64, 59, 56, 50, 74, 53, 39, 34, 33, 48, 59, 40, 9, 14, 47, 51, 51, 81, 46, 73, 81, 37, 60, 30, 12, 59, 30, 63, 30, 73, 55, 63, 24, 16, 13, 35, 66, 45, 45, 22, 29, 34, 38, 68, 47, 36, 67, 19, 22, 33, 15, 50, 31, 19, 24, 26, 12, 63, 51, 34, 64, 20, 12, 45, 33, 66, 50, 54, 70, 74, 14, 31, 45, 47, 36, 53, 26, 48, 55, 34, 22, 55, 41, 49, 75, 41, 43, 50, 73, 35, 70, 26, 39, 73, 37, 43, 50, 53, 64, 36, 21, 54, 31, 74, 5, 62, 78, 25, 68, 27, 43, 55, 52, 64, 70, 32, 4, 72, 67, 87, 66, 27, 51, 76, 60, 4, 72, 52, 38, 51, 58, 34, 27, 73, 11, 45, 43, 38, 25, 62, 27, 33, 31, 29, 14, 73, 28, 72, 39, 76, 52, 21, 76, 71, 54, 40, 52, 11, 61, 17, 26, 39, 43, 37, 48
              |23, 30, 60, 94, 35, 57, 65, 29, 44, 27, 80, 46, 38, 70, 66, 76, 66, 29, 43, 83, 87, 68, 65, 53, 52, 50, 93, 74, 30, 65, 67, 81, 49, 88, 53, 82, 26, 14, 74, 36, 25, 76, 87, 84, 84, 76, 39, 93, 16, 77, 12, 64, 64, 28, 50, 8, 29, 37, 23, 79, 30, 55, 39, 42, 31, 52, 39, 100, 59, 85, 5, 95, 10, 81, 60, 86, 64, 51, 61, 54, 83, 80, 61, 16, 12, 21, 19, 87, 56, 17, 50, 34, 69, 95, 42, 41, 18, 78, 65, 78, 38, 49, 78, 93, 40, 45, 67, 14, 90, 85, 46, 57, 15, 66, 92, 13, 67, 5, 106, 78, 60, 28, 61, 64, 50, 64, 56, 39, 93, 94, 41, 60, 56, 84, 44, 47, 57, 39, 65, 45, 39, 50, 69, 84, 77, 46, 38, 75, 56, 86, 99, 41, 32, 69, 24, 47, 99, 8, 74, 71, 33, 40, 10, 91, 44, 13, 44, 89, 54, 55, 59, 9, 24, 23, 68, 40, 81, 54, 43, 47, 99, 5, 86, 84, 91, 74, 29, 77, 53, 45, 42, 73, 63, 45, 89, 34, 48, 56, 62, 35, 50, 86, 37, 41, 52, 82, 38, 33, 31, 56, 97, 65, 83, 70, 68, 89, 48, 97, 44, 39, 95, 89, 86, 22, 89, 22, 57, 55, 35, 46, 44, 70, 68, 39, 42, 47, 16, 45, 16, 65, 45, 39, 43, 55, 53, 55, 59, 16, 29, 9, 48, 67, 40, 24, 57, 21, 40, 61, 44, 22, 66, 60, 17, 67, 74, 39, 58, 90, 8, 57, 62, 34, 56, 64, 54, 80, 40, 50, 94, 67, 5, 44, 16, 97, 32, 45, 82, 54, 42, 99, 47, 32, 69, 56, 85, 77, 35, 43, 53, 23
              |20, 20, 43, 97, 23, 18, 71, 11, 50, 52, 48, 21, 24, 80, 39, 40, 43, 27, 14, 58, 54, 52, 42, 59, 49, 16, 60, 39, 39, 33, 41, 89, 43, 57, 65, 67, 12, 26, 70, 57, 45, 62, 68, 68, 72, 63, 36, 96, 32, 46, 30, 84, 41, 57, 37, 39, 43, 46, 15, 53, 13, 82, 5, 55, 45, 59, 41, 92, 37, 80, 39, 67, 42, 84, 56, 60, 55, 15, 38, 83, 83, 84, 23, 34, 28, 24, 44, 68, 49, 22, 81, 20, 73, 61, 72, 58, 20, 49, 69, 46, 16, 14, 42, 92, 25, 7, 73, 25, 79, 50, 8, 61, 24, 63, 62, 49, 86, 36, 99, 82, 35, 60, 61, 69, 58, 75, 83, 32, 72, 74, 71, 75, 80, 73, 41, 72, 77, 4, 27, 76, 61, 61, 72, 53, 40, 10, 13, 57, 49, 51, 99, 60, 32, 78, 59, 80, 89, 36, 43, 49, 8, 26, 42, 82, 74, 35, 70, 77, 36, 41, 26, 30, 36, 33, 41, 38, 50, 20, 16, 63, 88, 34, 68, 60, 63, 51, 11, 76, 33, 30, 36, 51, 83, 7, 84, 62, 40, 42, 73, 35, 75, 92, 2, 18, 81, 65, 40, 11, 48, 23, 62, 36, 89, 84, 35, 75, 68, 92, 62, 22, 91, 90, 92, 57, 85, 57, 30, 21, 68, 56, 10, 33, 82, 66, 50, 39, 25, 49, 33, 53, 69, 26, 40, 80, 55, 19, 76, 34, 58, 47, 53, 50, 20, 20, 89, 54, 34, 75, 76, 17, 53, 85, 35, 73, 84, 63, 26, 79, 47, 44, 73, 48, 22, 36, 76, 52, 20, 55, 81, 59, 42, 46, 30, 91, 66, 7, 72, 83, 72, 64, 15, 53, 60, 77, 68, 73, 16, 10, 20, 40
              |92, 117, 60, 20, 81, 107, 43, 97, 62, 85, 80, 82, 79, 44, 72, 93, 65, 122, 88, 63, 84, 51, 66, 53, 55, 91, 83, 91, 76, 83, 69, 35, 60, 77, 57, 39, 102, 98, 33, 75, 81, 42, 44, 39, 34, 41, 70, 21, 116, 77, 96, 64, 66, 89, 65, 114, 77, 69, 102, 64, 110, 80, 97, 65, 76, 54, 68, 14, 67, 22, 101, 68, 97, 26, 47, 63, 47, 95, 68, 85, 23, 28, 104, 118, 109, 113, 88, 47, 54, 99, 91, 120, 37, 89, 87, 70, 101, 74, 42, 81, 86, 113, 95, 13, 77, 103, 41, 107, 26, 90, 105, 49, 99, 41, 74, 101, 61, 100, 7, 31, 72, 92, 45, 43, 57, 49, 79, 72, 48, 46, 86, 56, 72, 32, 64, 78, 66, 105, 101, 89, 74, 58, 38, 76, 96, 109, 89, 51, 54, 92, 13, 71, 127, 44, 100, 95, 18, 98, 78, 59, 107, 76, 98, 21, 89, 93, 79, 30, 66, 61, 86, 108, 82, 84, 71, 68, 78, 89, 118, 64, 20, 108, 45, 59, 69, 60, 97, 29, 69, 72, 68, 58, 65, 102, 18, 86, 63, 60, 51, 73, 77, 28, 103, 119, 84, 44, 69, 93, 76, 87, 94, 76, 30, 51, 84, 33, 69, 10, 67, 123, 11, 19, 28, 102, 17, 98, 77, 90, 94, 60, 93, 100, 51, 83, 64, 64, 96, 61, 117, 49, 77, 126, 65, 76, 53, 94, 60, 90, 89, 104, 58, 55, 121, 113, 96, 95, 70, 55, 93, 106, 49, 77, 89, 41, 43, 77, 85, 26, 108, 58, 51, 72, 89, 75, 71, 70, 82, 56, 28, 43, 110, 62, 115, 12, 100, 103, 30, 85, 88, 93, 90, 78, 42, 68, 43, 29, 87, 93, 88, 83
              |61, 86, 50, 31, 55, 90, 11, 69, 28, 40, 82, 63, 54, 4, 67, 89, 61, 89, 67, 70, 89, 48, 61, 19, 33, 74, 91, 86, 40, 75, 64, 16, 38, 84, 13, 50, 72, 63, 29, 30, 41, 47, 59, 52, 47, 45, 41, 30, 80, 77, 60, 18, 60, 44, 47, 74, 38, 32, 71, 69, 81, 32, 74, 24, 36, 19, 37, 50, 57, 35, 61, 82, 56, 22, 31, 73, 37, 78, 60, 37, 26, 20, 90, 81, 72, 80, 47, 62, 37, 66, 43, 90, 16, 96, 39, 25, 68, 76, 14, 81, 62, 91, 91, 35, 54, 82, 11, 72, 47, 92, 84, 18, 64, 26, 84, 57, 16, 61, 51, 17, 62, 46, 22, 14, 19, 2, 31, 46, 67, 66, 38, 8, 24, 46, 37, 29, 18, 81, 89, 41, 28, 17, 15, 81, 92, 87, 65, 54, 37, 94, 37, 26, 94, 4, 54, 47, 51, 59, 76, 59, 79, 53, 57, 44, 40, 55, 31, 50, 52, 47, 75, 71, 45, 49, 67, 39, 81, 74, 92, 19, 52, 69, 59, 69, 80, 62, 69, 25, 55, 51, 42, 59, 18, 81, 38, 39, 41, 47, 4, 43, 29, 22, 78, 92, 36, 54, 38, 66, 35, 73, 101, 70, 19, 8, 78, 52, 22, 42, 22, 94, 39, 29, 22, 56, 37, 53, 65, 76, 46, 22, 73, 91, 6, 35, 28, 41, 62, 28, 80, 43, 29, 96, 39, 28, 24, 79, 12, 53, 43, 62, 24, 51, 93, 81, 49, 50, 44, 7, 44, 74, 44, 30, 51, 11, 8, 30, 73, 48, 66, 44, 4, 33, 75, 68, 23, 74, 59, 23, 53, 34, 69, 32, 79, 45, 53, 82, 41, 37, 40, 101, 72, 35, 38, 20, 56, 30, 62, 72, 73, 44
              |51, 69, 16, 66, 38, 47, 53, 50, 46, 68, 19, 30, 35, 64, 11, 31, 7, 76, 36, 10, 26, 16, 8, 48, 34, 34, 27, 28, 50, 21, 8, 67, 31, 21, 58, 24, 55, 60, 40, 64, 60, 21, 21, 24, 29, 23, 38, 66, 76, 15, 61, 79, 9, 75, 25, 79, 54, 49, 57, 6, 61, 86, 44, 55, 55, 48, 42, 50, 14, 44, 71, 22, 70, 56, 33, 13, 27, 37, 12, 90, 52, 57, 43, 78, 69, 69, 65, 19, 28, 59, 92, 69, 50, 33, 83, 61, 59, 12, 50, 19, 37, 56, 32, 57, 33, 47, 54, 66, 37, 29, 49, 46, 60, 38, 22, 76, 79, 68, 58, 57, 15, 78, 41, 50, 50, 62, 86, 35, 23, 25, 82, 67, 80, 31, 36, 78, 75, 52, 39, 87, 66, 54, 50, 17, 34, 53, 39, 12, 28, 31, 65, 64, 80, 62, 83, 93, 46, 67, 15, 4, 57, 33, 71, 41, 86, 62, 77, 33, 20, 21, 26, 70, 53, 52, 9, 39, 18, 31, 63, 62, 45, 72, 20, 11, 19, 2, 50, 47, 20, 28, 35, 5, 79, 46, 47, 76, 30, 20, 61, 41, 80, 66, 51, 66, 88, 19, 42, 45, 58, 28, 37, 15, 64, 71, 21, 30, 69, 53, 63, 72, 54, 58, 66, 83, 48, 80, 20, 31, 85, 51, 39, 37, 69, 77, 49, 31, 58, 44, 77, 21, 75, 75, 35, 83, 42, 35, 70, 59, 75, 77, 46, 13, 69, 67, 100, 76, 35, 66, 89, 61, 20, 87, 59, 54, 67, 71, 25, 36, 80, 22, 61, 55, 30, 14, 77, 11, 34, 45, 36, 30, 78, 41, 74, 51, 87, 47, 33, 90, 84, 38, 35, 64, 27, 76, 21, 41, 40, 39, 30, 57
              |16, 40, 41, 74, 21, 53, 45, 25, 23, 17, 66, 33, 23, 51, 51, 66, 49, 42, 33, 66, 74, 48, 49, 33, 31, 41, 79, 63, 9, 53, 51, 62, 29, 73, 34, 62, 27, 15, 53, 21, 9, 56, 67, 63, 63, 56, 19, 73, 33, 63, 12, 50, 47, 22, 31, 29, 9, 16, 25, 62, 35, 46, 35, 23, 11, 32, 18, 79, 42, 64, 17, 78, 14, 61, 39, 69, 43, 44, 45, 47, 62, 60, 56, 34, 25, 32, 9, 68, 36, 19, 45, 43, 49, 82, 36, 24, 22, 63, 45, 65, 27, 50, 68, 72, 25, 42, 47, 24, 69, 73, 44, 36, 17, 45, 77, 20, 52, 16, 85, 58, 44, 25, 40, 44, 30, 45, 47, 21, 74, 75, 35, 43, 44, 64, 23, 36, 42, 39, 58, 40, 25, 31, 48, 69, 67, 46, 29, 56, 36, 75, 78, 25, 47, 50, 27, 44, 78, 13, 60, 53, 35, 24, 15, 70, 38, 8, 34, 69, 36, 36, 48, 24, 3, 4, 53, 19, 67, 44, 48, 30, 78, 23, 67, 66, 75, 57, 25, 56, 36, 28, 22, 55, 49, 42, 68, 26, 28, 37, 43, 15, 39, 67, 36, 47, 45, 62, 17, 26, 13, 45, 85, 51, 64, 52, 56, 68, 33, 76, 28, 48, 74, 68, 67, 27, 68, 25, 43, 46, 33, 26, 37, 63, 51, 30, 21, 27, 15, 24, 33, 45, 33, 50, 23, 44, 32, 47, 43, 6, 23, 22, 27, 48, 48, 34, 54, 21, 21, 43, 40, 28, 46, 49, 4, 47, 55, 27, 47, 70, 25, 37, 43, 15, 46, 49, 41, 65, 27, 29, 73, 46, 26, 23, 31, 76, 33, 42, 61, 47, 36, 87, 39, 17, 48, 42, 65, 56, 24, 36, 43, 4
              |13, 24, 37, 89, 15, 25, 64, 5, 42, 45, 48, 16, 17, 72, 36, 42, 39, 30, 10, 55, 54, 47, 38, 51, 41, 16, 60, 40, 31, 32, 38, 82, 36, 56, 57, 62, 10, 21, 63, 49, 38, 57, 64, 63, 66, 57, 28, 89, 31, 45, 24, 76, 37, 51, 30, 37, 35, 38, 12, 50, 16, 74, 6, 47, 37, 51, 33, 86, 33, 73, 34, 65, 36, 76, 48, 58, 48, 17, 34, 76, 75, 76, 28, 33, 26, 24, 37, 63, 41, 17, 74, 25, 65, 61, 65, 50, 16, 47, 61, 46, 9, 22, 44, 85, 18, 14, 65, 23, 73, 51, 15, 53, 19, 56, 61, 43, 78, 31, 93, 75, 31, 53, 54, 61, 50, 67, 75, 24, 68, 70, 63, 67, 72, 67, 34, 65, 69, 11, 31, 69, 53, 53, 64, 52, 43, 18, 7, 52, 41, 53, 92, 52, 35, 70, 53, 73, 83, 30, 42, 45, 12, 19, 37, 76, 67, 29, 62, 71, 30, 35, 26, 28, 29, 25, 38, 30, 49, 20, 23, 55, 82, 31, 63, 57, 61, 47, 5, 69, 28, 23, 29, 47, 75, 13, 77, 55, 32, 35, 65, 26, 68, 84, 9, 24, 73, 60, 32, 3, 41, 23, 63, 34, 82, 76, 35, 69, 60, 85, 54, 28, 84, 82, 84, 52, 78, 51, 26, 22, 61, 48, 10, 36, 74, 59, 42, 32, 19, 41, 32, 47, 62, 31, 32, 72, 47, 21, 68, 27, 51, 42, 45, 44, 26, 22, 82, 47, 26, 67, 69, 16, 47, 77, 29, 65, 76, 56, 25, 73, 42, 37, 65, 40, 22, 33, 69, 50, 13, 47, 75, 52, 38, 38, 29, 84, 60, 14, 66, 76, 65, 65, 14, 45, 53, 69, 63, 66, 8, 9, 20, 33
              |77, 102, 49, 9, 66, 96, 24, 82, 45, 66, 76, 70, 65, 25, 64, 87, 57, 107, 76, 60, 82, 42, 58, 35, 40, 80, 82, 84, 59, 75, 61, 18, 46, 75, 38, 35, 87, 81, 19, 56, 63, 36, 43, 36, 30, 34, 54, 9, 100, 72, 79, 46, 58, 70, 52, 97, 59, 51, 87, 60, 96, 61, 84, 47, 58, 36, 52, 23, 57, 14, 83, 69, 79, 7, 33, 62, 35, 84, 59, 66, 6, 9, 95, 101, 92, 98, 70, 46, 40, 83, 72, 105, 19, 87, 68, 51, 86, 69, 23, 76, 73, 101, 89, 6, 64, 91, 22, 91, 26, 86, 93, 31, 83, 26, 73, 82, 43, 83, 22, 12, 62, 73, 28, 24, 39, 30, 60, 57, 50, 48, 67, 37, 53, 28, 48, 58, 47, 92, 92, 70, 55, 39, 20, 73, 90, 97, 76, 45, 40, 88, 11, 52, 112, 25, 81, 76, 25, 81, 72, 53, 93, 63, 80, 21, 69, 76, 60, 30, 55, 49, 77, 91, 65, 67, 64, 52, 74, 79, 104, 45, 27, 90, 44, 57, 68, 55, 82, 13, 58, 59, 53, 52, 46, 89, 14, 66, 49, 49, 31, 57, 58, 12, 90, 106, 65, 41, 52, 79, 58, 77, 92, 69, 13, 33, 77, 33, 50, 14, 48, 109, 11, 1, 12, 83, 11, 79, 67, 80, 75, 42, 81, 92, 32, 63, 47, 49, 80, 44, 101, 39, 58, 112, 50, 57, 36, 84, 41, 73, 70, 86, 41, 46, 107, 98, 77, 76, 55, 36, 73, 91, 40, 58, 72, 22, 25, 58, 75, 27, 90, 46, 31, 54, 79, 67, 52, 66, 68, 38, 31, 30, 92, 46, 98, 17, 81, 91, 25, 66, 69, 92, 79, 60, 32, 49, 41, 16, 73, 81, 78, 65
              |27, 44, 19, 76, 16, 29, 54, 25, 37, 52, 30, 5, 14, 64, 16, 30, 18, 51, 11, 34, 38, 28, 17, 43, 30, 13, 43, 27, 33, 16, 17, 71, 24, 38, 53, 42, 31, 37, 48, 51, 43, 37, 43, 43, 47, 38, 24, 75, 51, 27, 39, 73, 16, 58, 16, 55, 38, 37, 32, 29, 37, 76, 20, 45, 40, 44, 29, 67, 12, 57, 49, 45, 49, 63, 35, 37, 32, 17, 13, 79, 61, 64, 28, 53, 45, 45, 46, 42, 27, 35, 79, 45, 53, 45, 70, 50, 35, 28, 51, 28, 13, 34, 32, 69, 12, 25, 55, 42, 55, 36, 27, 44, 36, 42, 42, 56, 74, 46, 75, 63, 10, 61, 42, 51, 44, 60, 77, 19, 48, 49, 68, 63, 72, 48, 26, 67, 67, 29, 27, 74, 54, 48, 53, 33, 32, 31, 14, 32, 27, 38, 77, 53, 56, 62, 64, 79, 64, 45, 24, 24, 32, 13, 50, 58, 72, 41, 65, 52, 12, 18, 13, 46, 35, 32, 18, 25, 31, 12, 40, 53, 64, 49, 43, 36, 41, 26, 25, 55, 9, 12, 22, 26, 73, 23, 61, 61, 21, 18, 59, 25, 69, 72, 27, 43, 77, 39, 28, 20, 43, 11, 48, 15, 70, 70, 19, 50, 60, 68, 53, 48, 68, 68, 72, 63, 62, 61, 6, 14, 69, 43, 16, 29, 68, 63, 39, 21, 35, 35, 52, 29, 64, 51, 24, 73, 38, 17, 65, 38, 59, 56, 39, 25, 45, 42, 88, 57, 20, 62, 75, 36, 29, 78, 39, 55, 68, 58, 11, 54, 58, 21, 59, 41, 13, 13, 68, 30, 10, 40, 56, 37, 55, 31, 49, 67, 70, 25, 48, 79, 70, 50, 12, 49, 36, 68, 42, 51, 16, 16, 11, 39
              |28, 7, 60, 111, 37, 28, 85, 21, 62, 58, 64, 37, 39, 92, 56, 54, 60, 13, 31, 75, 69, 69, 59, 72, 63, 33, 75, 53, 49, 49, 58, 102, 58, 73, 77, 84, 17, 29, 85, 64, 52, 79, 85, 85, 88, 80, 50, 110, 23, 62, 33, 93, 58, 61, 53, 34, 52, 57, 18, 70, 8, 88, 22, 66, 54, 71, 53, 108, 54, 96, 39, 83, 44, 98, 71, 77, 71, 31, 55, 88, 98, 98, 34, 25, 25, 16, 49, 85, 64, 25, 85, 4, 86, 75, 76, 67, 22, 65, 83, 62, 32, 17, 55, 107, 40, 20, 86, 23, 96, 64, 19, 74, 27, 78, 78, 49, 96, 37, 115, 96, 52, 63, 75, 82, 70, 87, 89, 46, 89, 91, 75, 86, 87, 89, 55, 79, 86, 14, 39, 80, 68, 72, 86, 69, 53, 16, 29, 74, 64, 65, 114, 69, 16, 91, 60, 83, 106, 37, 59, 66, 11, 41, 44, 98, 79, 39, 76, 93, 53, 57, 42, 27, 45, 41, 58, 51, 66, 36, 8, 73, 105, 31, 85, 77, 79, 68, 21, 91, 50, 46, 50, 68, 92, 21, 100, 67, 55, 58, 85, 47, 82, 106, 15, 4, 86, 82, 52, 25, 57, 40, 75, 53, 103, 95, 51, 91, 77, 108, 71, 6, 106, 104, 106, 58, 101, 58, 47, 37, 70, 67, 27, 45, 93, 72, 62, 54, 29, 62, 24, 69, 76, 9, 54, 87, 68, 34, 86, 39, 62, 46, 66, 67, 4, 12, 93, 56, 48, 86, 79, 16, 69, 92, 41, 86, 97, 70, 43, 96, 44, 60, 85, 57, 38, 53, 84, 69, 36, 68, 98, 75, 38, 59, 22, 107, 68, 20, 88, 88, 77, 78, 31, 60, 76, 86, 85, 89, 30, 27, 37, 47
              |37, 47, 26, 85, 28, 23, 65, 32, 49, 64, 21, 15, 25, 75, 14, 18, 20, 54, 17, 32, 28, 34, 19, 55, 41, 11, 34, 15, 46, 6, 17, 82, 36, 30, 65, 47, 36, 46, 57, 64, 55, 43, 45, 47, 52, 44, 36, 85, 57, 19, 48, 86, 19, 70, 27, 63, 51, 49, 39, 27, 40, 89, 23, 57, 52, 56, 42, 73, 18, 65, 59, 40, 59, 73, 45, 34, 41, 13, 17, 91, 70, 73, 19, 59, 52, 50, 57, 44, 38, 43, 91, 47, 64, 35, 82, 63, 42, 22, 62, 19, 22, 31, 20, 77, 24, 23, 66, 49, 60, 25, 25, 56, 45, 52, 35, 67, 87, 56, 81, 73, 14, 73, 53, 62, 56, 72, 89, 31, 48, 50, 81, 75, 84, 54, 38, 79, 80, 30, 16, 86, 67, 60, 64, 26, 19, 29, 22, 35, 38, 27, 85, 65, 59, 73, 75, 92, 70, 55, 16, 26, 35, 25, 60, 64, 85, 51, 77, 56, 22, 28, 1, 54, 47, 44, 16, 38, 23, 7, 39, 65, 69, 57, 45, 34, 36, 27, 32, 64, 19, 24, 34, 28, 85, 22, 68, 73, 33, 28, 70, 37, 82, 82, 29, 43, 89, 43, 41, 27, 56, 4, 37, 10, 80, 81, 8, 54, 72, 75, 66, 48, 75, 77, 82, 74, 69, 73, 9, 7, 81, 55, 17, 17, 79, 76, 51, 33, 44, 48, 58, 37, 76, 52, 36, 86, 50, 10, 77, 49, 71, 66, 51, 30, 46, 47, 100, 69, 33, 74, 87, 42, 36, 91, 50, 66, 79, 71, 1, 60, 68, 31, 70, 54, 5, 11, 81, 25, 21, 52, 60, 46, 64, 44, 55, 73, 81, 23, 55, 91, 83, 39, 13, 61, 44, 81, 45, 60, 25, 18, 7, 51
              |17, 14, 56, 99, 30, 41, 71, 17, 48, 39, 70, 37, 33, 78, 58, 64, 60, 15, 32, 76, 76, 65, 59, 58, 53, 38, 82, 62, 34, 55, 59, 89, 49, 78, 61, 80, 12, 12, 76, 47, 35, 74, 83, 81, 83, 74, 39, 99, 9, 67, 15, 76, 58, 42, 47, 16, 36, 42, 10, 71, 14, 69, 26, 50, 38, 58, 41, 101, 53, 87, 19, 87, 24, 86, 61, 79, 63, 38, 55, 69, 87, 86, 46, 11, 5, 5, 30, 83, 56, 9, 65, 18, 74, 83, 57, 50, 8, 69, 70, 68, 29, 33, 65, 97, 35, 31, 73, 3, 90, 73, 31, 62, 10, 68, 83, 29, 78, 17, 107, 84, 52, 43, 64, 70, 56, 72, 70, 37, 89, 90, 56, 70, 69, 84, 45, 60, 68, 24, 51, 60, 51, 57, 74, 74, 64, 30, 28, 71, 56, 74, 103, 52, 20, 76, 41, 63, 99, 18, 64, 65, 17, 35, 24, 91, 59, 21, 57, 88, 49, 52, 48, 7, 29, 26, 60, 40, 71, 42, 27, 56, 99, 12, 83, 78, 83, 68, 17, 81, 47, 40, 41, 67, 74, 31, 91, 48, 47, 53, 70, 35, 63, 93, 22, 24, 67, 78, 40, 22, 40, 45, 85, 56, 90, 79, 57, 87, 59, 99, 54, 23, 97, 93, 93, 38, 92, 38, 48, 43, 51, 53, 32, 57, 77, 53, 47, 46, 13, 49, 10, 64, 58, 24, 44, 68, 57, 42, 69, 22, 43, 26, 53, 63, 24, 8, 73, 36, 39, 70, 60, 7, 64, 73, 23, 73, 82, 52, 48, 90, 25, 54, 70, 42, 44, 55, 66, 72, 33, 55, 93, 67, 19, 47, 7, 99, 48, 31, 82, 69, 57, 87, 36, 42, 69, 68, 82, 80, 26, 31, 42, 30
              |36, 31, 49, 106, 36, 3, 83, 27, 63, 69, 42, 28, 36, 93, 39, 30, 45, 38, 23, 56, 46, 57, 43, 71, 59, 17, 52, 30, 54, 29, 42, 101, 53, 51, 79, 71, 28, 42, 79, 72, 61, 67, 70, 72, 76, 68, 49, 106, 46, 42, 46, 99, 43, 74, 46, 55, 58, 60, 31, 51, 26, 98, 18, 69, 60, 71, 54, 97, 41, 87, 56, 63, 59, 93, 65, 58, 63, 13, 41, 99, 92, 94, 9, 48, 44, 38, 60, 69, 58, 39, 97, 29, 83, 51, 88, 73, 36, 45, 80, 40, 28, 8, 31, 100, 36, 10, 84, 41, 84, 40, 9, 73, 41, 72, 57, 65, 100, 53, 105, 93, 37, 76, 72, 80, 71, 88, 98, 44, 72, 75, 87, 89, 95, 78, 53, 88, 92, 16, 15, 92, 76, 74, 83, 48, 29, 9, 25, 60, 58, 41, 108, 75, 41, 91, 76, 96, 94, 52, 39, 51, 22, 37, 59, 88, 91, 51, 85, 81, 43, 48, 23, 46, 52, 48, 40, 51, 44, 19, 18, 77, 93, 50, 69, 59, 59, 52, 27, 85, 39, 40, 48, 53, 98, 10, 91, 79, 50, 49, 86, 48, 91, 102, 18, 22, 97, 67, 53, 26, 64, 22, 51, 35, 100, 97, 30, 78, 83, 98, 77, 28, 98, 98, 102, 74, 92, 73, 32, 18, 84, 69, 17, 21, 95, 83, 64, 50, 41, 62, 47, 59, 85, 31, 51, 96, 67, 15, 90, 50, 75, 63, 66, 54, 25, 34, 106, 70, 46, 89, 92, 33, 59, 101, 52, 84, 97, 79, 25, 84, 63, 52, 86, 63, 20, 35, 92, 49, 31, 67, 85, 67, 58, 58, 44, 97, 83, 10, 78, 99, 88, 54, 19, 69, 67, 92, 70, 82, 29, 18, 20, 56
              |67, 91, 66, 46, 65, 101, 30, 76, 39, 39, 99, 75, 65, 22, 83, 104, 77, 92, 78, 89, 106, 65, 78, 34, 48, 86, 108, 101, 47, 90, 81, 30, 53, 102, 23, 69, 78, 66, 48, 31, 43, 67, 78, 71, 67, 64, 52, 45, 81, 94, 63, 2, 76, 39, 61, 73, 43, 40, 77, 86, 87, 16, 83, 31, 41, 33, 47, 69, 73, 55, 61, 100, 55, 41, 48, 91, 55, 90, 76, 21, 45, 38, 102, 82, 74, 83, 47, 81, 53, 70, 28, 95, 36, 113, 28, 28, 73, 93, 33, 98, 73, 100, 107, 53, 66, 91, 30, 74, 67, 108, 93, 35, 68, 45, 102, 54, 4, 62, 69, 35, 77, 39, 40, 33, 32, 20, 15, 57, 86, 86, 28, 14, 10, 66, 50, 19, 9, 89, 102, 28, 27, 28, 35, 98, 107, 96, 76, 73, 53, 110, 53, 26, 96, 23, 47, 33, 70, 60, 93, 77, 86, 65, 56, 64, 28, 57, 22, 70, 67, 62, 89, 73, 50, 54, 84, 50, 98, 87, 99, 23, 72, 70, 79, 87, 99, 80, 76, 45, 69, 64, 54, 77, 3, 90, 58, 32, 55, 63, 21, 53, 17, 37, 86, 99, 21, 74, 48, 75, 38, 87, 118, 85, 35, 14, 93, 72, 18, 61, 24, 99, 57, 47, 37, 50, 56, 47, 79, 89, 37, 33, 84, 105, 15, 27, 37, 55, 66, 40, 81, 60, 21, 101, 52, 13, 39, 91, 11, 56, 38, 59, 37, 69, 99, 85, 31, 46, 56, 15, 31, 79, 62, 12, 54, 30, 22, 26, 87, 68, 63, 60, 21, 38, 88, 83, 12, 92, 70, 37, 72, 53, 68, 44, 80, 63, 43, 91, 61, 21, 28, 118, 84, 35, 57, 9, 75, 50, 71, 83, 86, 48
              |42, 60, 12, 68, 29, 40, 52, 41, 41, 61, 21, 21, 26, 62, 5, 28, 3, 66, 27, 19, 28, 17, 1, 44, 30, 26, 32, 25, 43, 15, 3, 67, 26, 26, 55, 30, 46, 51, 41, 58, 53, 25, 28, 30, 34, 27, 31, 68, 66, 16, 52, 76, 2, 68, 18, 70, 47, 43, 48, 14, 52, 82, 35, 50, 48, 45, 36, 56, 6, 48, 62, 31, 61, 57, 31, 22, 26, 29, 3, 85, 54, 58, 37, 68, 60, 60, 57, 27, 25, 50, 86, 60, 50, 36, 77, 56, 50, 16, 49, 20, 28, 47, 30, 61, 24, 39, 53, 57, 43, 30, 41, 43, 51, 37, 29, 68, 76, 60, 64, 58, 5, 71, 40, 49, 46, 60, 82, 28, 32, 34, 76, 64, 76, 36, 30, 73, 71, 43, 33, 82, 61, 50, 50, 21, 31, 45, 30, 18, 25, 32, 69, 59, 71, 60, 75, 87, 52, 58, 15, 9, 48, 25, 62, 47, 80, 54, 71, 39, 12, 16, 19, 61, 46, 44, 6, 32, 21, 23, 55, 57, 51, 63, 28, 20, 27, 11, 41, 48, 12, 20, 28, 11, 75, 37, 51, 69, 24, 15, 59, 34, 75, 67, 42, 57, 83, 25, 35, 36, 52, 20, 40, 9, 65, 69, 17, 36, 65, 58, 58, 63, 58, 61, 67, 75, 52, 72, 11, 23, 78, 46, 30, 33, 67, 71, 44, 25, 49, 39, 67, 21, 70, 66, 29, 78, 38, 27, 67, 51, 68, 69, 42, 13, 60, 58, 95, 68, 28, 64, 83, 52, 20, 83, 51, 53, 66, 65, 17, 42, 71, 18, 59, 48, 22, 7, 73, 17, 25, 41, 43, 30, 69, 35, 64, 56, 80, 39, 37, 85, 78, 41, 26, 57, 28, 72, 28, 43, 31, 30, 22, 50
              |71, 78, 48, 98, 61, 46, 87, 65, 77, 96, 16, 48, 58, 97, 32, 19, 37, 85, 51, 29, 8, 50, 37, 80, 66, 44, 8, 20, 77, 29, 34, 101, 62, 14, 91, 54, 70, 80, 73, 94, 87, 53, 47, 53, 59, 55, 66, 98, 90, 20, 82, 112, 38, 102, 55, 97, 82, 79, 72, 29, 72, 118, 56, 86, 84, 81, 71, 77, 42, 76, 93, 24, 93, 89, 66, 28, 60, 44, 39, 121, 85, 90, 40, 92, 86, 83, 90, 44, 61, 77, 122, 77, 84, 3, 113, 92, 76, 21, 83, 17, 56, 57, 18, 88, 57, 53, 87, 83, 66, 9, 54, 79, 79, 71, 17, 100, 112, 90, 85, 91, 38, 105, 75, 84, 83, 96, 118, 62, 44, 46, 112, 100, 112, 61, 67, 109, 107, 61, 34, 117, 97, 86, 84, 17, 20, 57, 56, 44, 61, 8, 96, 95, 89, 95, 109, 123, 73, 89, 22, 38, 67, 57, 94, 71, 116, 85, 108, 61, 48, 52, 35, 88, 79, 77, 31, 68, 16, 40, 67, 93, 71, 91, 46, 32, 22, 35, 65, 80, 47, 55, 64, 38, 112, 52, 77, 105, 60, 52, 94, 69, 111, 99, 61, 71, 119, 48, 71, 61, 87, 38, 4, 30, 97, 105, 26, 58, 101, 83, 94, 77, 84, 90, 99, 108, 79, 106, 39, 39, 113, 83, 50, 28, 103, 107, 80, 61, 78, 75, 91, 55, 106, 80, 65, 115, 75, 40, 103, 82, 103, 100, 78, 46, 74, 79, 131, 102, 63, 99, 119, 75, 53, 119, 84, 87, 100, 101, 35, 65, 102, 54, 94, 84, 38, 33, 109, 23, 55, 78, 63, 63, 98, 72, 89, 80, 114, 53, 65, 121, 114, 5, 46, 93, 60, 108, 49, 74, 59, 51, 40, 84
              |38, 59, 54, 66, 40, 75, 39, 47, 25, 6, 84, 53, 42, 40, 67, 85, 64, 60, 54, 80, 91, 58, 64, 30, 38, 62, 95, 82, 22, 72, 66, 52, 39, 89, 25, 68, 48, 35, 53, 7, 13, 64, 76, 70, 68, 62, 33, 65, 48, 80, 31, 31, 62, 8, 45, 41, 17, 21, 46, 76, 56, 24, 56, 18, 16, 29, 28, 80, 58, 64, 28, 92, 22, 55, 44, 83, 49, 65, 61, 25, 58, 54, 77, 49, 42, 51, 15, 77, 44, 39, 24, 63, 44, 99, 14, 12, 42, 79, 40, 82, 48, 72, 87, 68, 43, 64, 40, 42, 72, 91, 66, 34, 37, 46, 92, 22, 34, 29, 83, 51, 61, 10, 40, 39, 26, 34, 25, 37, 84, 84, 13, 29, 24, 68, 34, 15, 24, 60, 79, 19, 8, 24, 43, 85, 87, 68, 50, 66, 44, 93, 72, 11, 64, 39, 18, 24, 79, 28, 77, 66, 56, 43, 23, 71, 17, 25, 12, 73, 51, 49, 68, 40, 22, 26, 69, 31, 84, 64, 69, 17, 80, 37, 76, 79, 89, 70, 47, 54, 52, 45, 36, 68, 30, 64, 68, 6, 40, 50, 32, 30, 18, 58, 57, 68, 23, 71, 29, 48, 12, 65, 103, 69, 55, 38, 74, 74, 16, 74, 14, 68, 71, 63, 58, 20, 67, 17, 61, 67, 15, 23, 59, 83, 37, 9, 22, 39, 35, 27, 49, 54, 12, 69, 35, 23, 33, 68, 27, 25, 7, 26, 27, 60, 68, 53, 32, 14, 36, 30, 20, 48, 55, 28, 23, 40, 44, 7, 66, 73, 31, 48, 32, 15, 66, 67, 21, 80, 47, 29, 77, 51, 35, 30, 48, 75, 19, 64, 64, 25, 15, 104, 60, 6, 54, 23, 73, 56, 46, 57, 64, 18
              |55, 81, 41, 31, 48, 82, 3, 62, 21, 39, 73, 55, 47, 10, 58, 81, 52, 85, 60, 62, 80, 39, 52, 12, 24, 66, 82, 77, 35, 66, 55, 19, 30, 75, 11, 41, 66, 58, 21, 30, 38, 39, 50, 44, 39, 37, 34, 30, 76, 69, 55, 26, 51, 44, 38, 72, 34, 27, 65, 60, 75, 38, 67, 21, 33, 12, 30, 45, 49, 29, 58, 73, 53, 19, 22, 64, 28, 70, 51, 43, 22, 18, 82, 77, 68, 75, 44, 53, 28, 61, 48, 84, 9, 87, 42, 24, 63, 67, 6, 72, 55, 84, 83, 32, 47, 74, 4, 67, 40, 83, 76, 10, 60, 18, 75, 56, 25, 58, 47, 15, 53, 46, 13, 5, 14, 8, 37, 39, 58, 58, 41, 14, 30, 38, 29, 33, 24, 74, 81, 45, 28, 13, 8, 72, 83, 80, 58, 46, 28, 85, 36, 25, 89, 8, 54, 51, 45, 56, 67, 50, 73, 46, 54, 38, 44, 51, 34, 43, 44, 38, 66, 67, 41, 44, 59, 32, 72, 66, 86, 19, 47, 66, 51, 60, 71, 53, 62, 19, 46, 43, 35, 50, 26, 73, 33, 40, 33, 38, 7, 36, 34, 23, 71, 86, 41, 46, 31, 60, 32, 65, 92, 61, 21, 17, 69, 44, 24, 38, 22, 89, 35, 27, 23, 56, 32, 53, 57, 68, 49, 17, 66, 83, 15, 37, 22, 33, 57, 22, 77, 34, 32, 91, 31, 34, 16, 71, 18, 49, 43, 60, 17, 42, 87, 76, 54, 50, 37, 13, 48, 69, 35, 37, 47, 4, 14, 32, 64, 41, 64, 35, 7, 29, 67, 59, 28, 65, 52, 16, 46, 26, 67, 25, 75, 40, 54, 74, 34, 43, 43, 92, 64, 33, 29, 26, 48, 23, 55, 65, 65, 40
              |19, 10, 57, 102, 32, 39, 75, 17, 52, 43, 69, 37, 34, 81, 58, 62, 60, 12, 32, 77, 76, 66, 59, 62, 56, 37, 82, 61, 38, 54, 60, 92, 51, 78, 65, 81, 12, 15, 79, 51, 39, 76, 84, 83, 85, 76, 42, 102, 9, 67, 19, 80, 58, 46, 49, 18, 40, 46, 10, 72, 11, 73, 25, 54, 42, 61, 44, 103, 54, 89, 23, 87, 28, 89, 64, 80, 65, 37, 55, 73, 90, 89, 44, 11, 9, 2, 34, 84, 58, 12, 69, 14, 77, 83, 61, 54, 10, 69, 73, 67, 30, 30, 64, 100, 36, 29, 76, 7, 92, 72, 29, 65, 13, 71, 83, 33, 82, 21, 110, 87, 53, 47, 67, 73, 59, 76, 74, 39, 90, 91, 60, 74, 73, 86, 47, 64, 72, 21, 49, 64, 55, 61, 77, 74, 62, 28, 28, 72, 58, 73, 106, 55, 16, 80, 44, 67, 101, 22, 64, 66, 15, 37, 28, 93, 63, 25, 61, 90, 50, 54, 47, 11, 33, 29, 60, 43, 71, 41, 23, 60, 101, 15, 84, 78, 83, 69, 17, 83, 48, 42, 43, 68, 78, 29, 94, 52, 49, 55, 73, 38, 67, 96, 20, 21, 71, 80, 43, 22, 44, 44, 84, 56, 93, 83, 56, 89, 63, 102, 58, 19, 100, 96, 96, 42, 94, 42, 48, 43, 55, 56, 31, 55, 81, 57, 51, 48, 16, 52, 10, 65, 62, 20, 46, 72, 60, 41, 73, 25, 47, 30, 56, 65, 20, 4, 77, 40, 41, 74, 64, 6, 66, 77, 27, 76, 85, 56, 47, 92, 28, 56, 73, 45, 43, 55, 70, 72, 34, 58, 94, 69, 22, 50, 8, 101, 52, 29, 84, 73, 61, 86, 35, 46, 71, 72, 83, 82, 27, 30, 41, 34
              |63, 89, 39, 21, 53, 85, 12, 69, 31, 53, 68, 58, 52, 18, 55, 78, 48, 94, 63, 54, 75, 33, 49, 22, 27, 68, 76, 75, 45, 65, 52, 18, 33, 69, 26, 31, 74, 68, 10, 44, 50, 30, 40, 33, 28, 28, 41, 20, 86, 64, 66, 38, 48, 58, 40, 83, 45, 38, 73, 53, 83, 52, 72, 34, 44, 23, 38, 30, 47, 15, 70, 64, 66, 8, 21, 56, 24, 73, 49, 57, 8, 8, 84, 88, 79, 84, 57, 43, 28, 70, 63, 92, 6, 81, 57, 38, 72, 62, 10, 68, 60, 88, 80, 18, 51, 79, 11, 77, 26, 78, 81, 18, 69, 13, 68, 69, 37, 70, 33, 8, 52, 61, 15, 11, 25, 21, 52, 44, 48, 47, 56, 28, 44, 26, 35, 48, 38, 80, 82, 60, 43, 26, 7, 66, 81, 85, 63, 38, 28, 81, 24, 40, 98, 17, 68, 66, 31, 67, 64, 45, 80, 50, 67, 23, 59, 62, 49, 30, 44, 38, 66, 78, 51, 54, 55, 39, 67, 67, 92, 33, 32, 77, 41, 52, 64, 48, 69, 4, 47, 46, 40, 44, 39, 77, 18, 55, 36, 37, 21, 44, 48, 17, 77, 93, 56, 36, 39, 66, 45, 66, 86, 59, 15, 27, 67, 32, 39, 23, 36, 96, 21, 14, 17, 70, 17, 67, 56, 69, 63, 29, 69, 82, 26, 52, 33, 37, 66, 30, 87, 29, 47, 98, 37, 48, 23, 73, 32, 60, 58, 73, 27, 37, 94, 85, 69, 64, 42, 27, 63, 77, 30, 51, 59, 11, 20, 46, 64, 28, 77, 35, 21, 41, 68, 57, 43, 59, 56, 25, 32, 20, 79, 33, 85, 25, 69, 79, 21, 57, 58, 86, 67, 47, 22, 40, 37, 10, 60, 69, 66, 52
              |23, 49, 27, 61, 16, 52, 34, 30, 11, 26, 55, 27, 16, 42, 39, 58, 36, 53, 29, 52, 63, 32, 36, 21, 15, 37, 67, 55, 8, 44, 38, 51, 13, 61, 27, 45, 34, 28, 37, 23, 18, 40, 51, 47, 47, 39, 4, 60, 46, 51, 26, 47, 34, 33, 17, 45, 12, 9, 33, 48, 43, 48, 35, 17, 13, 20, 2, 64, 29, 49, 33, 64, 30, 48, 23, 55, 27, 41, 32, 51, 48, 47, 53, 48, 39, 44, 23, 52, 19, 30, 52, 52, 36, 71, 42, 22, 32, 51, 32, 54, 24, 52, 60, 58, 17, 43, 35, 37, 53, 63, 45, 23, 29, 29, 64, 36, 48, 32, 69, 45, 33, 36, 25, 31, 19, 37, 49, 9, 58, 59, 41, 37, 44, 48, 7, 39, 40, 42, 54, 47, 27, 22, 35, 57, 60, 48, 27, 40, 19, 65, 64, 25, 58, 40, 41, 52, 62, 29, 49, 39, 41, 16, 31, 54, 45, 24, 37, 52, 23, 21, 41, 38, 13, 14, 41, 3, 55, 38, 53, 26, 62, 38, 51, 52, 61, 42, 30, 42, 24, 16, 7, 40, 46, 42, 53, 34, 12, 22, 35, 4, 42, 55, 39, 54, 49, 46, 1, 28, 16, 38, 74, 40, 52, 45, 46, 52, 32, 60, 26, 56, 59, 54, 55, 41, 53, 38, 33, 40, 43, 17, 35, 57, 43, 36, 12, 11, 26, 11, 47, 29, 36, 59, 7, 46, 18, 43, 38, 21, 33, 38, 15, 33, 55, 44, 60, 34, 8, 37, 48, 37, 30, 51, 21, 35, 46, 31, 39, 53, 41, 21, 35, 13, 40, 38, 41, 52, 21, 17, 57, 30, 42, 8, 45, 61, 45, 43, 45, 51, 43, 76, 35, 22, 32, 41, 49, 41, 23, 34, 37, 16
              |10, 17, 48, 93, 22, 36, 66, 9, 43, 38, 62, 29, 25, 73, 50, 56, 52, 21, 24, 68, 69, 57, 50, 53, 47, 31, 75, 54, 30, 47, 51, 84, 42, 71, 57, 72, 6, 9, 69, 44, 32, 67, 75, 73, 75, 67, 33, 93, 17, 59, 13, 73, 50, 42, 39, 22, 32, 38, 3, 63, 12, 68, 19, 46, 34, 52, 35, 94, 45, 80, 22, 79, 25, 80, 55, 71, 56, 31, 47, 69, 81, 80, 40, 19, 11, 12, 29, 75, 49, 5, 66, 20, 69, 76, 57, 47, 2, 61, 65, 60, 21, 30, 58, 91, 27, 25, 67, 8, 82, 65, 25, 56, 7, 62, 75, 31, 76, 19, 100, 78, 44, 44, 58, 64, 51, 68, 69, 30, 81, 82, 56, 66, 67, 76, 38, 59, 66, 19, 45, 60, 48, 53, 68, 66, 57, 26, 20, 63, 49, 67, 97, 49, 25, 72, 42, 64, 92, 19, 56, 57, 13, 27, 25, 84, 59, 19, 56, 81, 41, 44, 40, 13, 25, 21, 52, 34, 64, 34, 25, 53, 92, 17, 75, 70, 75, 60, 9, 74, 39, 33, 34, 59, 72, 25, 85, 48, 39, 45, 65, 29, 62, 87, 16, 24, 66, 71, 34, 14, 37, 37, 77, 48, 85, 75, 49, 79, 57, 92, 51, 25, 91, 87, 87, 40, 85, 40, 40, 36, 52, 48, 25, 50, 73, 52, 42, 39, 9, 43, 18, 56, 56, 27, 37, 67, 51, 35, 66, 19, 43, 29, 47, 55, 24, 11, 74, 37, 32, 66, 60, 4, 56, 72, 21, 67, 77, 50, 40, 82, 29, 47, 65, 38, 37, 47, 64, 64, 25, 49, 85, 60, 24, 41, 15, 92, 50, 25, 74, 69, 57, 80, 28, 40, 61, 65, 74, 73, 18, 23, 34, 27
              |25, 13, 64, 107, 38, 45, 79, 24, 56, 45, 76, 44, 41, 85, 65, 69, 67, 10, 39, 84, 83, 73, 66, 66, 61, 44, 89, 67, 42, 61, 67, 96, 57, 85, 68, 88, 19, 19, 84, 53, 41, 82, 91, 89, 91, 82, 47, 106, 4, 74, 22, 82, 65, 46, 55, 14, 43, 50, 17, 79, 17, 74, 32, 57, 45, 65, 49, 109, 61, 95, 23, 94, 28, 94, 69, 87, 71, 44, 62, 73, 95, 93, 51, 5, 9, 5, 36, 91, 64, 17, 69, 17, 82, 89, 61, 57, 16, 76, 78, 74, 37, 36, 71, 105, 43, 35, 80, 10, 98, 79, 35, 69, 18, 76, 90, 32, 85, 22, 115, 91, 60, 47, 72, 77, 63, 79, 75, 45, 96, 98, 60, 76, 74, 92, 53, 66, 74, 28, 56, 64, 57, 65, 81, 81, 69, 34, 35, 79, 64, 80, 111, 58, 13, 83, 43, 66, 107, 23, 71, 73, 21, 43, 28, 99, 63, 27, 62, 96, 57, 60, 54, 10, 36, 33, 67, 48, 78, 48, 28, 63, 107, 14, 90, 85, 90, 76, 24, 89, 55, 48, 49, 75, 80, 36, 99, 53, 55, 61, 77, 43, 68, 100, 27, 24, 71, 86, 48, 29, 47, 51, 90, 63, 97, 86, 63, 95, 65, 107, 61, 21, 105, 101, 100, 40, 100, 41, 55, 49, 54, 60, 38, 62, 84, 58, 55, 54, 21, 57, 4, 72, 63, 21, 52, 74, 64, 48, 76, 28, 47, 28, 60, 71, 22, 9, 76, 40, 47, 77, 63, 13, 72, 78, 30, 80, 89, 57, 54, 98, 26, 62, 77, 49, 50, 62, 72, 79, 40, 62, 101, 75, 20, 54, 3, 107, 50, 35, 90, 73, 61, 93, 42, 48, 77, 74, 90, 88, 34, 37, 48, 37
              |71, 97, 43, 15, 61, 90, 21, 77, 40, 63, 70, 64, 59, 25, 58, 81, 51, 102, 70, 54, 76, 36, 52, 31, 35, 74, 76, 78, 54, 69, 55, 21, 40, 69, 36, 29, 82, 77, 13, 53, 59, 30, 38, 31, 25, 28, 49, 15, 95, 66, 75, 46, 51, 67, 46, 92, 55, 47, 81, 54, 90, 61, 78, 43, 54, 32, 47, 22, 51, 9, 79, 63, 75, 7, 27, 56, 29, 78, 53, 66, 2, 9, 89, 97, 87, 93, 66, 41, 34, 79, 71, 100, 16, 82, 66, 48, 81, 63, 20, 70, 67, 95, 83, 9, 58, 85, 20, 86, 21, 80, 87, 27, 78, 20, 68, 79, 44, 79, 23, 12, 56, 70, 23, 21, 35, 29, 60, 52, 45, 44, 65, 36, 53, 23, 43, 57, 46, 87, 86, 69, 52, 36, 16, 67, 84, 91, 70, 39, 34, 82, 16, 49, 107, 25, 78, 75, 23, 77, 66, 47, 87, 57, 76, 17, 68, 71, 58, 26, 49, 43, 71, 87, 60, 63, 58, 47, 68, 73, 99, 43, 25, 86, 39, 52, 63, 49, 77, 7, 52, 53, 48, 46, 47, 84, 10, 64, 43, 43, 30, 52, 57, 16, 84, 100, 64, 35, 47, 73, 54, 71, 87, 63, 16, 33, 70, 28, 48, 14, 46, 104, 11, 7, 16, 80, 9, 77, 61, 74, 73, 38, 76, 86, 33, 61, 43, 44, 75, 39, 96, 33, 56, 106, 45, 57, 31, 78, 40, 69, 67, 82, 36, 40, 102, 93, 77, 73, 50, 35, 72, 86, 34, 58, 68, 20, 25, 56, 69, 23, 86, 40, 30, 51, 73, 61, 51, 61, 63, 34, 27, 24, 88, 41, 94, 16, 78, 85, 19, 66, 67, 86, 73, 56, 25, 48, 35, 10, 68, 75, 72, 61
              |62, 88, 37, 22, 52, 83, 13, 68, 31, 53, 66, 56, 51, 20, 53, 76, 46, 93, 62, 52, 73, 31, 47, 22, 26, 67, 73, 73, 45, 63, 50, 20, 32, 67, 27, 29, 73, 67, 8, 44, 50, 28, 38, 31, 25, 25, 40, 22, 86, 62, 65, 40, 46, 58, 38, 83, 45, 38, 72, 51, 82, 54, 70, 34, 44, 23, 37, 29, 45, 13, 70, 62, 66, 9, 19, 54, 22, 71, 47, 59, 8, 10, 82, 87, 78, 83, 57, 41, 27, 69, 64, 91, 7, 79, 58, 39, 71, 59, 11, 66, 59, 87, 78, 19, 50, 77, 12, 76, 25, 76, 79, 18, 69, 12, 66, 69, 39, 69, 32, 10, 50, 61, 14, 12, 26, 22, 53, 43, 45, 45, 57, 29, 46, 24, 34, 49, 40, 78, 80, 61, 43, 27, 8, 64, 79, 83, 62, 36, 27, 78, 25, 40, 98, 19, 69, 67, 29, 67, 62, 43, 79, 49, 67, 22, 60, 62, 50, 28, 42, 36, 65, 77, 51, 53, 53, 38, 65, 66, 90, 34, 31, 77, 39, 50, 61, 45, 68, 3, 45, 45, 39, 42, 41, 76, 17, 55, 35, 36, 23, 43, 50, 19, 76, 92, 57, 34, 38, 65, 45, 64, 84, 57, 17, 29, 65, 30, 40, 23, 37, 95, 20, 15, 19, 71, 16, 67, 55, 67, 64, 29, 68, 80, 27, 53, 33, 35, 66, 30, 87, 27, 48, 97, 36, 50, 22, 71, 34, 59, 58, 73, 27, 35, 93, 84, 70, 64, 41, 28, 64, 77, 28, 52, 58, 12, 22, 47, 63, 26, 77, 33, 23, 41, 66, 55, 44, 57, 55, 25, 30, 18, 79, 32, 84, 24, 70, 77, 19, 59, 59, 84, 65, 47, 20, 41, 35, 8, 59, 67, 65, 52
              |40, 59, 59, 72, 44, 77, 45, 49, 31, 8, 88, 57, 46, 46, 72, 89, 69, 59, 57, 85, 96, 64, 69, 36, 44, 65, 100, 86, 26, 76, 71, 57, 45, 94, 30, 74, 49, 36, 59, 13, 16, 70, 81, 76, 74, 68, 37, 71, 47, 84, 31, 34, 67, 3, 50, 38, 21, 26, 47, 81, 57, 24, 59, 24, 20, 35, 33, 86, 63, 69, 26, 97, 21, 61, 50, 88, 55, 68, 65, 24, 64, 59, 80, 47, 41, 50, 16, 83, 49, 40, 21, 63, 50, 104, 12, 18, 43, 84, 46, 87, 51, 73, 91, 74, 47, 66, 46, 42, 78, 96, 68, 40, 37, 52, 97, 19, 38, 28, 89, 57, 66, 4, 46, 45, 32, 39, 25, 41, 89, 90, 11, 34, 26, 74, 39, 17, 28, 62, 82, 16, 14, 30, 49, 90, 91, 70, 53, 72, 49, 98, 78, 16, 63, 45, 13, 20, 85, 27, 82, 72, 57, 47, 21, 77, 15, 25, 13, 79, 56, 54, 72, 39, 25, 28, 74, 36, 89, 68, 70, 23, 86, 36, 82, 85, 94, 75, 49, 60, 57, 49, 40, 73, 33, 66, 74, 3, 45, 55, 38, 35, 19, 63, 59, 68, 22, 76, 34, 50, 17, 69, 107, 73, 60, 43, 78, 80, 20, 80, 20, 68, 77, 69, 63, 15, 73, 12, 65, 70, 9, 29, 61, 87, 41, 9, 28, 44, 36, 33, 47, 59, 14, 69, 40, 24, 39, 71, 31, 26, 2, 23, 33, 65, 68, 53, 30, 10, 41, 35, 16, 48, 61, 29, 24, 46, 49, 11, 70, 79, 27, 54, 38, 21, 70, 71, 24, 85, 50, 35, 83, 57, 32, 35, 47, 81, 13, 66, 70, 24, 12, 109, 63, 12, 60, 26, 79, 62, 49, 60, 67, 21
              |72, 93, 33, 53, 59, 73, 52, 73, 56, 81, 39, 54, 56, 61, 36, 53, 31, 99, 60, 21, 42, 25, 32, 53, 44, 59, 40, 51, 65, 46, 33, 60, 44, 35, 63, 13, 79, 81, 34, 74, 74, 17, 6, 11, 16, 19, 54, 53, 98, 37, 81, 80, 33, 87, 43, 99, 68, 62, 80, 24, 85, 92, 69, 64, 68, 54, 56, 29, 37, 31, 89, 25, 87, 47, 38, 21, 32, 63, 36, 96, 42, 49, 69, 100, 91, 92, 80, 6, 38, 81, 100, 94, 47, 46, 92, 70, 81, 33, 49, 40, 61, 81, 55, 42, 54, 72, 52, 88, 19, 48, 74, 50, 81, 38, 31, 93, 79, 87, 37, 50, 39, 91, 43, 50, 57, 62, 91, 53, 5, 4, 91, 69, 84, 17, 50, 85, 78, 77, 64, 96, 76, 60, 48, 34, 56, 79, 63, 18, 38, 50, 50, 73, 104, 60, 97, 103, 25, 85, 38, 25, 81, 54, 88, 24, 95, 80, 85, 14, 40, 37, 52, 91, 70, 70, 35, 54, 37, 56, 88, 68, 23, 92, 6, 18, 26, 23, 73, 39, 42, 49, 51, 22, 80, 71, 31, 87, 45, 36, 62, 58, 86, 56, 76, 91, 94, 11, 56, 68, 71, 53, 51, 40, 55, 69, 46, 12, 76, 36, 71, 96, 37, 46, 56, 98, 34, 95, 45, 57, 96, 59, 64, 61, 68, 86, 59, 46, 79, 54, 99, 28, 83, 99, 50, 88, 48, 60, 72, 77, 88, 95, 54, 26, 94, 91, 107, 91, 52, 68, 99, 84, 27, 91, 77, 52, 63, 80, 50, 18, 98, 36, 62, 67, 55, 40, 82, 29, 57, 52, 15, 31, 98, 52, 96, 32, 100, 72, 22, 96, 93, 50, 60, 76, 28, 80, 8, 33, 63, 64, 56, 73
              |69, 82, 38, 83, 58, 53, 75, 66, 69, 90, 15, 47, 55, 85, 26, 27, 28, 89, 51, 15, 12, 38, 29, 70, 57, 46, 8, 27, 72, 29, 26, 87, 53, 5, 81, 39, 71, 79, 59, 87, 82, 39, 31, 38, 44, 41, 60, 83, 92, 16, 81, 101, 30, 97, 47, 97, 76, 72, 73, 17, 75, 109, 58, 77, 77, 71, 64, 61, 35, 61, 91, 8, 90, 74, 55, 13, 49, 48, 32, 113, 70, 76, 48, 94, 87, 85, 86, 28, 51, 77, 115, 82, 71, 14, 106, 84, 77, 14, 71, 16, 55, 64, 28, 73, 53, 58, 75, 83, 50, 19, 59, 68, 78, 59, 1, 97, 101, 88, 69, 77, 33, 100, 63, 72, 73, 84, 109, 57, 27, 29, 104, 89, 103, 46, 59, 101, 97, 64, 42, 110, 89, 76, 71, 9, 30, 63, 55, 31, 51, 20, 81, 87, 94, 83, 104, 116, 57, 86, 19, 27, 70, 53, 91, 55, 109, 82, 99, 45, 41, 44, 36, 88, 75, 73, 24, 61, 12, 42, 73, 84, 55, 90, 30, 17, 6, 23, 66, 66, 41, 49, 57, 26, 101, 57, 62, 98, 52, 43, 83, 63, 103, 84, 64, 77, 111, 33, 64, 61, 80, 39, 19, 27, 83, 93, 27, 42, 92, 67, 86, 83, 68, 75, 84, 104, 64, 102, 36, 41, 107, 74, 52, 37, 91, 99, 72, 53, 77, 67, 93, 43, 98, 86, 58, 105, 64, 44, 92, 79, 97, 98, 69, 35, 80, 82, 123, 98, 57, 88, 112, 77, 41, 110, 80, 75, 88, 93, 36, 49, 100, 45, 83, 77, 40, 29, 100, 13, 52, 68, 47, 51, 97, 63, 90, 64, 109, 58, 50, 113, 107, 18, 48, 86, 48, 98, 34, 60, 58, 53, 42, 79
              |73, 98, 41, 21, 62, 89, 28, 78, 44, 68, 65, 63, 59, 33, 55, 77, 48, 103, 69, 48, 70, 33, 49, 36, 36, 72, 70, 74, 58, 65, 51, 29, 41, 63, 42, 23, 83, 79, 14, 59, 64, 25, 31, 24, 18, 23, 51, 21, 98, 61, 78, 54, 48, 73, 46, 96, 59, 51, 83, 49, 91, 68, 78, 48, 58, 37, 49, 14, 49, 3, 83, 56, 79, 16, 28, 50, 28, 76, 50, 73, 11, 18, 86, 99, 90, 94, 71, 34, 35, 81, 79, 100, 22, 76, 73, 54, 82, 58, 26, 65, 67, 94, 79, 11, 58, 84, 27, 88, 13, 75, 86, 32, 80, 22, 61, 83, 52, 82, 18, 21, 53, 76, 27, 27, 40, 37, 68, 53, 37, 36, 72, 44, 60, 16, 45, 64, 54, 86, 83, 76, 58, 41, 23, 61, 80, 90, 70, 34, 35, 77, 19, 55, 108, 33, 84, 82, 15, 80, 61, 43, 88, 57, 80, 8, 75, 75, 65, 18, 48, 42, 68, 90, 64, 66, 54, 49, 63, 71, 99, 49, 16, 89, 32, 45, 56, 44, 78, 12, 51, 53, 49, 41, 55, 83, 2, 70, 44, 41, 37, 54, 64, 24, 84, 100, 72, 29, 50, 74, 59, 69, 81, 59, 24, 42, 67, 21, 55, 9, 52, 104, 8, 13, 24, 85, 2, 82, 59, 72, 79, 43, 75, 82, 41, 68, 47, 45, 77, 43, 98, 30, 63, 107, 46, 64, 35, 76, 48, 72, 73, 87, 40, 37, 102, 94, 85, 78, 51, 43, 79, 87, 31, 66, 71, 27, 34, 62, 66, 14, 91, 39, 37, 55, 71, 57, 59, 55, 63, 38, 18, 23, 92, 44, 96, 9, 84, 84, 13, 73, 74, 80, 72, 62, 23, 56, 29, 10, 68, 74, 70, 65
              |52, 75, 14, 49, 39, 60, 37, 54, 36, 60, 36, 36, 36, 48, 25, 47, 18, 81, 43, 22, 42, 4, 19, 34, 23, 44, 43, 44, 44, 35, 22, 50, 23, 37, 45, 11, 60, 60, 23, 54, 53, 6, 15, 12, 15, 7, 33, 49, 78, 32, 60, 64, 18, 67, 22, 79, 47, 41, 60, 21, 67, 74, 52, 44, 48, 35, 35, 36, 20, 27, 68, 34, 66, 38, 19, 25, 12, 48, 21, 78, 35, 40, 57, 80, 71, 73, 59, 16, 17, 60, 81, 76, 34, 49, 73, 51, 61, 29, 34, 36, 42, 66, 49, 41, 34, 57, 38, 68, 23, 46, 59, 32, 61, 22, 36, 72, 64, 67, 44, 41, 24, 70, 26, 34, 38, 47, 74, 33, 23, 23, 72, 52, 67, 16, 29, 66, 61, 60, 53, 77, 56, 41, 34, 34, 50, 63, 44, 6, 17, 49, 49, 53, 86, 46, 76, 83, 33, 64, 32, 13, 63, 34, 67, 26, 76, 59, 66, 20, 21, 17, 39, 71, 49, 49, 24, 33, 35, 42, 72, 49, 32, 72, 15, 21, 32, 15, 54, 29, 23, 29, 30, 12, 64, 55, 30, 67, 24, 16, 46, 37, 68, 49, 58, 74, 76, 10, 35, 49, 50, 39, 54, 29, 47, 55, 37, 18, 57, 38, 51, 79, 38, 41, 49, 77, 32, 74, 30, 43, 76, 39, 47, 53, 54, 67, 39, 25, 58, 34, 79, 7, 64, 82, 29, 70, 29, 47, 56, 56, 67, 74, 34, 7, 77, 72, 89, 70, 31, 52, 79, 65, 6, 74, 56, 38, 51, 60, 37, 23, 77, 15, 46, 46, 42, 28, 64, 27, 38, 33, 24, 14, 77, 32, 76, 36, 80, 57, 17, 78, 74, 54, 44, 55, 10, 62, 13, 24, 44, 47, 41, 52
              |38, 63, 14, 49, 26, 57, 27, 42, 18, 42, 46, 29, 24, 37, 30, 53, 25, 68, 35, 38, 54, 15, 25, 19, 5, 40, 56, 50, 26, 39, 28, 44, 6, 50, 29, 27, 47, 45, 22, 36, 35, 22, 33, 29, 29, 21, 16, 48, 63, 42, 44, 50, 24, 49, 11, 63, 29, 23, 48, 35, 56, 57, 43, 26, 29, 19, 17, 46, 21, 33, 51, 50, 48, 36, 8, 41, 9, 44, 23, 61, 35, 36, 55, 65, 55, 59, 41, 35, 1, 46, 64, 65, 26, 61, 55, 33, 47, 40, 24, 45, 32, 60, 55, 44, 23, 50, 28, 53, 35, 55, 52, 18, 46, 15, 51, 54, 51, 50, 53, 36, 26, 52, 15, 24, 21, 35, 57, 18, 41, 42, 54, 38, 51, 29, 11, 49, 46, 52, 54, 59, 38, 25, 26, 46, 56, 56, 35, 24, 1, 58, 51, 36, 73, 36, 58, 65, 44, 48, 40, 25, 53, 22, 49, 36, 58, 42, 48, 34, 16, 10, 39, 55, 31, 32, 31, 16, 45, 39, 64, 33, 44, 56, 34, 37, 48, 28, 42, 28, 19, 18, 14, 26, 50, 49, 37, 48, 8, 10, 33, 20, 51, 45, 49, 65, 59, 28, 17, 38, 32, 38, 65, 34, 43, 44, 41, 34, 40, 45, 34, 69, 43, 42, 45, 58, 37, 55, 29, 41, 58, 22, 41, 55, 42, 49, 21, 9, 43, 16, 64, 11, 47, 72, 12, 54, 13, 44, 41, 39, 49, 56, 17, 17, 67, 59, 72, 51, 16, 38, 61, 52, 12, 58, 39, 28, 41, 43, 37, 35, 60, 8, 33, 28, 40, 31, 48, 40, 28, 16, 39, 12, 60, 13, 61, 44, 61, 50, 27, 61, 56, 66, 39, 37, 14, 47, 31, 26, 33, 40, 38, 34
              |58, 83, 53, 38, 54, 90, 17, 67, 27, 35, 85, 64, 54, 12, 70, 92, 64, 86, 67, 75, 93, 52, 64, 21, 35, 75, 95, 89, 38, 77, 68, 23, 40, 88, 11, 56, 70, 59, 35, 25, 36, 53, 65, 58, 54, 51, 41, 37, 76, 81, 56, 11, 63, 37, 48, 69, 35, 30, 68, 73, 79, 24, 73, 21, 33, 20, 36, 58, 60, 43, 56, 87, 51, 30, 35, 78, 41, 78, 63, 29, 34, 28, 91, 77, 68, 76, 42, 67, 40, 63, 35, 87, 23, 100, 31, 21, 65, 79, 20, 85, 62, 90, 94, 43, 54, 81, 17, 68, 54, 95, 83, 22, 61, 32, 89, 52, 11, 57, 59, 25, 65, 39, 27, 19, 19, 7, 24, 46, 73, 72, 30, 1, 16, 53, 38, 22, 10, 80, 91, 33, 22, 16, 22, 85, 94, 86, 65, 59, 40, 97, 45, 20, 90, 12, 47, 39, 59, 55, 80, 63, 77, 53, 51, 52, 33, 51, 23, 57, 54, 49, 76, 67, 42, 46, 71, 39, 85, 75, 90, 14, 60, 65, 65, 74, 85, 67, 67, 33, 57, 52, 42, 64, 11, 80, 46, 32, 43, 50, 7, 42, 21, 29, 77, 90, 28, 60, 37, 65, 31, 75, 104, 73, 27, 9, 80, 59, 14, 50, 17, 92, 47, 37, 29, 49, 45, 46, 67, 77, 39, 21, 73, 93, 7, 28, 26, 42, 59, 28, 76, 47, 22, 94, 40, 20, 26, 80, 4, 49, 36, 56, 25, 55, 91, 78, 41, 44, 44, 1, 36, 71, 48, 22, 47, 17, 14, 24, 74, 56, 60, 47, 7, 29, 76, 70, 15, 78, 59, 24, 60, 40, 64, 32, 75, 52, 45, 81, 48, 29, 32, 105, 72, 29, 43, 12, 62, 37, 61, 72, 74, 40
              |60, 86, 39, 24, 51, 84, 6, 66, 27, 48, 70, 56, 49, 13, 56, 79, 49, 90, 61, 57, 77, 35, 50, 17, 25, 67, 78, 76, 41, 65, 53, 17, 31, 71, 20, 35, 70, 64, 13, 38, 45, 33, 44, 37, 32, 31, 38, 23, 82, 66, 62, 33, 49, 52, 38, 78, 41, 33, 70, 56, 79, 47, 69, 28, 39, 18, 34, 36, 47, 20, 65, 68, 61, 11, 20, 59, 25, 71, 49, 51, 14, 11, 83, 83, 74, 80, 52, 47, 27, 66, 57, 89, 1, 83, 51, 33, 68, 63, 5, 69, 58, 86, 81, 24, 49, 77, 5, 73, 32, 80, 79, 13, 65, 13, 71, 64, 32, 65, 38, 9, 52, 55, 12, 6, 20, 15, 46, 42, 52, 51, 50, 22, 39, 31, 32, 42, 32, 77, 81, 54, 37, 21, 1, 68, 82, 83, 61, 41, 27, 82, 29, 34, 95, 12, 63, 60, 36, 63, 65, 46, 77, 48, 62, 29, 53, 57, 43, 35, 43, 37, 66, 74, 47, 50, 56, 36, 69, 66, 89, 27, 38, 72, 45, 55, 66, 49, 66, 10, 46, 44, 37, 46, 34, 75, 24, 49, 34, 37, 16, 40, 42, 18, 74, 90, 50, 40, 35, 63, 39, 65, 88, 59, 16, 22, 67, 37, 33, 29, 31, 93, 26, 19, 18, 65, 23, 61, 56, 68, 57, 24, 67, 82, 21, 46, 28, 34, 62, 26, 83, 30, 41, 95, 34, 42, 19, 72, 26, 55, 52, 68, 23, 39, 91, 81, 63, 58, 39, 21, 57, 74, 31, 45, 54, 5, 16, 40, 64, 33, 72, 34, 16, 36, 67, 57, 37, 61, 54, 21, 38, 21, 74, 29, 81, 31, 63, 77, 26, 51, 52, 88, 66, 41, 24, 34, 41, 15, 58, 67, 65, 47
              |53, 75, 62, 59, 54, 90, 35, 63, 32, 22, 94, 66, 55, 33, 77, 97, 73, 76, 67, 87, 101, 64, 73, 32, 44, 76, 105, 94, 35, 83, 76, 43, 47, 98, 22, 71, 64, 51, 53, 17, 28, 68, 80, 73, 70, 66, 44, 58, 64, 89, 47, 17, 71, 21, 55, 56, 30, 31, 62, 84, 72, 9, 71, 23, 28, 31, 38, 77, 67, 62, 44, 99, 38, 50, 48, 90, 54, 79, 70, 12, 54, 48, 91, 65, 58, 67, 31, 82, 50, 55, 16, 79, 41, 109, 11, 17, 58, 88, 38, 92, 62, 87, 99, 63, 56, 79, 36, 59, 72, 102, 81, 35, 53, 47, 100, 37, 21, 45, 79, 45, 71, 22, 41, 37, 28, 27, 9, 48, 88, 88, 10, 20, 8, 70, 43, 1, 11, 76, 93, 13, 13, 25, 40, 94, 99, 83, 64, 72, 50, 104, 65, 14, 80, 32, 29, 19, 78, 44, 87, 74, 72, 55, 39, 70, 12, 41, 4, 74, 61, 57, 80, 56, 37, 41, 79, 42, 93, 77, 85, 17, 79, 53, 80, 86, 97, 77, 63, 51, 63, 56, 46, 75, 16, 78, 65, 15, 49, 58, 26, 42, 2, 50, 73, 84, 10, 75, 39, 63, 25, 78, 113, 79, 47, 27, 86, 75, 9, 70, 15, 84, 67, 57, 50, 32, 64, 29, 72, 80, 19, 27, 73, 96, 27, 9, 29, 48, 51, 34, 65, 59, 4, 85, 44, 7, 37, 82, 16, 41, 20, 41, 32, 66, 84, 69, 23, 28, 47, 21, 16, 64, 60, 12, 39, 36, 34, 10, 78, 73, 45, 56, 26, 26, 79, 77, 6, 88, 60, 33, 78, 54, 50, 38, 64, 72, 26, 79, 65, 12, 12, 114, 73, 20, 57, 9, 77, 55, 60, 71, 76, 33
              |27, 18, 66, 107, 41, 51, 79, 28, 56, 42, 81, 48, 43, 84, 69, 74, 71, 15, 43, 87, 87, 75, 69, 66, 62, 49, 93, 72, 42, 65, 70, 95, 59, 89, 67, 90, 23, 20, 85, 51, 40, 85, 93, 91, 93, 84, 48, 106, 2, 78, 21, 79, 69, 43, 57, 9, 43, 49, 21, 82, 22, 71, 37, 56, 44, 65, 49, 111, 64, 96, 20, 98, 26, 94, 70, 90, 73, 49, 65, 70, 95, 93, 56, 1, 9, 10, 34, 94, 65, 19, 65, 22, 82, 94, 58, 55, 18, 80, 78, 79, 40, 41, 76, 105, 45, 40, 80, 11, 99, 83, 40, 69, 19, 77, 94, 28, 82, 19, 117, 91, 63, 44, 73, 77, 63, 78, 72, 47, 99, 101, 57, 75, 72, 94, 54, 63, 72, 33, 61, 60, 55, 64, 81, 85, 74, 39, 39, 82, 65, 85, 111, 56, 17, 83, 39, 62, 109, 21, 75, 76, 26, 46, 25, 101, 59, 26, 59, 98, 60, 62, 59, 9, 36, 33, 71, 49, 82, 53, 33, 62, 109, 11, 93, 89, 94, 79, 28, 89, 58, 51, 51, 78, 78, 41, 100, 49, 56, 63, 76, 44, 66, 100, 32, 30, 68, 89, 49, 33, 45, 56, 95, 67, 97, 84, 68, 97, 63, 108, 59, 26, 106, 101, 100, 36, 101, 37, 59, 54, 50, 59, 43, 67, 83, 55, 54, 55, 21, 57, 1, 74, 60, 26, 53, 71, 65, 53, 74, 28, 44, 24, 60, 74, 28, 14, 72, 36, 49, 75, 59, 17, 74, 75, 29, 80, 88, 55, 58, 100, 21, 64, 76, 48, 55, 66, 69, 83, 43, 62, 103, 77, 15, 55, 4, 108, 46, 40, 91, 70, 58, 98, 47, 47, 78, 71, 92, 88, 37, 42, 53, 36
              |43, 57, 20, 77, 32, 33, 61, 40, 48, 66, 14, 20, 29, 71, 4, 19, 11, 64, 25, 21, 22, 26, 10, 52, 38, 21, 27, 16, 48, 7, 7, 76, 33, 22, 63, 38, 45, 52, 50, 64, 58, 34, 35, 38, 43, 35, 37, 77, 66, 11, 54, 84, 11, 73, 25, 71, 52, 50, 47, 16, 50, 89, 33, 57, 54, 53, 42, 64, 13, 56, 65, 30, 64, 66, 40, 23, 35, 24, 10, 92, 63, 67, 29, 68, 60, 59, 61, 33, 34, 51, 93, 57, 59, 30, 83, 63, 50, 12, 57, 13, 28, 42, 21, 69, 27, 34, 61, 57, 51, 22, 36, 52, 52, 46, 26, 72, 84, 62, 72, 67, 9, 76, 48, 57, 54, 69, 89, 33, 37, 39, 82, 72, 83, 44, 37, 80, 78, 40, 25, 88, 67, 58, 59, 17, 22, 40, 29, 25, 34, 24, 77, 65, 69, 69, 79, 93, 60, 60, 8, 17, 45, 28, 65, 55, 86, 56, 78, 47, 19, 24, 12, 62, 50, 48, 5, 38, 15, 17, 50, 64, 59, 64, 34, 23, 26, 16, 40, 57, 17, 25, 34, 18, 83, 33, 59, 75, 31, 23, 67, 39, 82, 76, 39, 53, 89, 33, 41, 35, 57, 14, 33, 1, 74, 78, 8, 44, 72, 66, 65, 59, 66, 69, 76, 79, 61, 77, 9, 17, 83, 54, 27, 24, 76, 77, 51, 32, 50, 46, 67, 30, 77, 62, 36, 85, 47, 21, 75, 54, 73, 72, 49, 22, 56, 56, 101, 73, 33, 72, 89, 51, 29, 90, 55, 61, 75, 72, 11, 50, 74, 26, 67, 54, 16, 3, 80, 15, 26, 49, 50, 39, 71, 42, 64, 64, 85, 34, 46, 92, 84, 35, 23, 63, 37, 79, 35, 52, 32, 27, 17, 54
              |68, 84, 34, 74, 56, 57, 67, 66, 64, 86, 19, 46, 53, 77, 25, 33, 25, 91, 51, 8, 20, 31, 25, 64, 51, 48, 17, 32, 68, 31, 24, 79, 48, 12, 74, 31, 71, 77, 51, 82, 78, 31, 22, 29, 35, 33, 56, 74, 92, 18, 79, 94, 27, 93, 43, 96, 72, 67, 73, 12, 76, 103, 59, 72, 73, 64, 60, 52, 32, 52, 88, 4, 88, 66, 48, 5, 42, 50, 29, 107, 62, 68, 52, 94, 86, 85, 83, 19, 45, 76, 109, 84, 63, 23, 101, 78, 76, 15, 64, 21, 54, 67, 34, 64, 51, 60, 67, 83, 41, 26, 62, 62, 77, 51, 8, 94, 94, 86, 60, 69, 31, 96, 56, 64, 67, 77, 103, 53, 18, 20, 99, 82, 96, 37, 54, 95, 91, 66, 47, 105, 84, 70, 64, 13, 36, 66, 55, 23, 45, 28, 72, 81, 95, 75, 101, 111, 48, 84, 21, 21, 71, 51, 89, 46, 103, 80, 94, 36, 38, 39, 38, 87, 71, 70, 23, 57, 16, 44, 76, 78, 46, 89, 21, 9, 3, 18, 66, 57, 38, 46, 53, 20, 94, 59, 53, 94, 48, 38, 76, 59, 97, 76, 66, 79, 105, 25, 60, 61, 76, 41, 28, 27, 75, 85, 30, 33, 86, 58, 80, 85, 60, 66, 76, 101, 55, 98, 35, 43, 102, 68, 53, 43, 84, 94, 67, 49, 75, 61, 93, 36, 92, 88, 53, 99, 58, 46, 86, 77, 93, 95, 63, 29, 82, 83, 117, 94, 53, 81, 107, 77, 35, 103, 77, 67, 80, 88, 37, 40, 98, 39, 76, 72, 42, 28, 94, 11, 51, 62, 38, 43, 96, 58, 90, 55, 105, 60, 41, 107, 102, 27, 49, 81, 40, 92, 25, 51, 57, 54, 43, 75
              |39, 47, 31, 90, 31, 19, 70, 33, 54, 67, 21, 19, 29, 80, 18, 14, 25, 54, 19, 34, 27, 39, 23, 60, 46, 12, 33, 12, 50, 8, 21, 87, 41, 30, 70, 51, 37, 48, 62, 68, 59, 47, 49, 52, 56, 49, 41, 89, 58, 20, 51, 90, 24, 74, 32, 65, 55, 54, 40, 30, 40, 93, 24, 62, 56, 60, 46, 77, 23, 69, 61, 41, 62, 78, 50, 36, 46, 12, 22, 96, 75, 78, 15, 60, 54, 51, 61, 47, 43, 45, 95, 46, 69, 34, 86, 67, 44, 23, 67, 19, 25, 29, 16, 82, 28, 22, 71, 51, 64, 23, 24, 61, 47, 57, 36, 69, 91, 58, 85, 78, 18, 76, 58, 67, 61, 77, 93, 36, 51, 53, 85, 80, 89, 58, 43, 84, 85, 29, 11, 90, 71, 65, 69, 27, 16, 27, 24, 39, 43, 25, 90, 70, 58, 78, 79, 95, 74, 57, 17, 31, 35, 29, 63, 68, 89, 54, 82, 61, 27, 33, 4, 55, 50, 47, 19, 43, 24, 8, 38, 70, 73, 59, 48, 37, 37, 31, 33, 69, 24, 29, 39, 32, 90, 21, 72, 77, 38, 33, 75, 42, 86, 87, 29, 41, 93, 47, 45, 29, 60, 6, 35, 14, 85, 86, 9, 58, 77, 80, 70, 47, 80, 82, 87, 77, 74, 76, 14, 6, 84, 60, 18, 12, 84, 80, 56, 38, 46, 52, 59, 42, 81, 50, 41, 90, 55, 8, 82, 52, 74, 69, 56, 35, 44, 47, 104, 72, 37, 79, 91, 43, 41, 95, 53, 71, 84, 75, 6, 64, 70, 36, 75, 58, 6, 15, 85, 27, 25, 57, 64, 51, 66, 48, 56, 78, 85, 22, 59, 96, 87, 38, 14, 65, 49, 85, 49, 65, 28, 19, 9, 55
              |13, 39, 29, 70, 8, 44, 43, 20, 21, 28, 53, 21, 10, 52, 38, 53, 36, 44, 22, 53, 61, 36, 35, 30, 23, 30, 65, 50, 11, 40, 37, 61, 19, 60, 36, 51, 24, 20, 46, 29, 20, 46, 55, 53, 53, 45, 9, 70, 38, 49, 19, 55, 34, 35, 19, 38, 16, 17, 24, 49, 33, 55, 26, 26, 17, 30, 12, 71, 29, 57, 28, 65, 27, 57, 31, 56, 34, 33, 32, 57, 57, 57, 46, 40, 30, 35, 22, 56, 26, 21, 56, 42, 45, 69, 47, 30, 23, 50, 42, 51, 16, 43, 55, 67, 11, 34, 45, 28, 60, 60, 36, 33, 21, 38, 63, 34, 57, 26, 77, 55, 31, 38, 35, 41, 29, 46, 55, 8, 62, 63, 45, 46, 51, 54, 15, 45, 48, 32, 47, 51, 33, 32, 45, 55, 55, 39, 18, 44, 26, 62, 74, 32, 49, 50, 41, 56, 69, 24, 47, 40, 31, 11, 28, 61, 50, 19, 43, 59, 23, 24, 35, 30, 11, 9, 39, 11, 54, 32, 44, 34, 69, 31, 55, 54, 62, 44, 20, 51, 23, 15, 11, 42, 54, 33, 61, 38, 17, 25, 44, 6, 48, 64, 29, 44, 55, 51, 11, 18, 21, 33, 71, 38, 62, 55, 43, 58, 40, 69, 33, 47, 67, 64, 64, 40, 62, 38, 29, 34, 45, 26, 27, 51, 53, 41, 21, 16, 18, 21, 39, 34, 42, 49, 14, 52, 27, 36, 47, 16, 35, 35, 25, 36, 45, 35, 65, 34, 9, 46, 52, 28, 35, 58, 16, 45, 56, 36, 34, 60, 37, 25, 44, 20, 34, 36, 48, 51, 14, 26, 63, 37, 36, 17, 36, 69, 46, 34, 52, 57, 47, 73, 27, 26, 39, 49, 54, 50, 14, 26, 31, 16
              |15, 41, 29, 69, 10, 46, 42, 22, 19, 27, 54, 22, 11, 50, 38, 55, 37, 45, 23, 54, 62, 36, 36, 29, 22, 32, 66, 52, 9, 41, 38, 60, 18, 61, 34, 50, 26, 21, 45, 27, 18, 45, 55, 52, 53, 45, 8, 68, 39, 50, 20, 53, 35, 33, 19, 39, 14, 15, 25, 49, 35, 53, 28, 24, 16, 28, 10, 70, 30, 56, 28, 66, 26, 56, 30, 57, 33, 35, 32, 55, 56, 55, 47, 41, 31, 36, 21, 56, 25, 22, 55, 44, 44, 70, 45, 28, 24, 51, 40, 52, 18, 45, 57, 66, 13, 36, 43, 29, 59, 61, 38, 31, 22, 37, 64, 33, 55, 26, 76, 54, 32, 36, 33, 39, 27, 44, 53, 8, 62, 63, 44, 44, 49, 53, 14, 43, 46, 34, 49, 49, 31, 30, 43, 56, 56, 41, 20, 44, 25, 63, 72, 30, 50, 48, 40, 55, 68, 24, 48, 41, 33, 12, 27, 60, 48, 19, 41, 58, 24, 24, 37, 31, 10, 9, 40, 9, 55, 34, 46, 32, 68, 32, 55, 54, 62, 44, 22, 49, 24, 15, 10, 42, 52, 35, 60, 36, 16, 25, 42, 4, 46, 63, 31, 46, 53, 50, 9, 20, 19, 34, 73, 39, 60, 53, 44, 57, 38, 68, 31, 48, 66, 62, 63, 39, 61, 37, 31, 36, 44, 25, 29, 52, 51, 39, 19, 16, 19, 19, 40, 34, 40, 51, 13, 51, 26, 38, 45, 16, 34, 34, 23, 36, 47, 36, 63, 33, 9, 44, 50, 29, 35, 56, 16, 43, 54, 34, 35, 60, 37, 25, 42, 18, 36, 37, 46, 52, 16, 25, 63, 36, 36, 16, 37, 68, 45, 36, 51, 55, 46, 74, 29, 25, 38, 47, 53, 48, 16, 28, 33, 14
              |63, 81, 78, 73, 67, 101, 52, 72, 48, 31, 109, 79, 68, 48, 93, 111, 89, 81, 80, 103, 117, 80, 89, 49, 60, 88, 120, 108, 48, 97, 91, 57, 63, 114, 39, 88, 73, 59, 70, 30, 39, 85, 97, 90, 87, 83, 58, 72, 68, 105, 55, 29, 87, 26, 70, 58, 43, 45, 70, 100, 80, 12, 82, 39, 41, 48, 53, 94, 83, 78, 48, 116, 43, 66, 64, 106, 71, 91, 86, 7, 70, 64, 103, 68, 63, 72, 39, 99, 66, 63, 2, 86, 58, 124, 12, 33, 66, 104, 55, 107, 74, 97, 113, 79, 69, 90, 53, 64, 89, 117, 91, 52, 61, 64, 116, 39, 32, 50, 95, 61, 86, 24, 58, 54, 45, 43, 13, 62, 105, 105, 13, 36, 20, 87, 58, 17, 26, 85, 105, 8, 28, 42, 57, 110, 113, 93, 76, 89, 66, 119, 80, 30, 84, 48, 28, 6, 94, 50, 103, 90, 81, 69, 43, 87, 9, 49, 17, 91, 76, 73, 94, 61, 48, 51, 94, 57, 109, 90, 93, 34, 96, 57, 97, 102, 113, 94, 72, 68, 78, 70, 61, 91, 27, 89, 82, 21, 64, 74, 42, 56, 16, 64, 83, 91, 8, 92, 54, 73, 38, 91, 128, 94, 62, 41, 100, 92, 26, 86, 31, 91, 83, 73, 64, 31, 81, 30, 87, 93, 17, 44, 85, 109, 41, 18, 45, 64, 59, 50, 68, 76, 19, 91, 59, 16, 54, 94, 32, 50, 25, 43, 49, 83, 91, 76, 6, 31, 62, 37, 8, 71, 77, 16, 48, 53, 49, 23, 92, 90, 46, 72, 42, 40, 92, 92, 21, 104, 73, 50, 95, 71, 52, 53, 68, 88, 22, 90, 82, 7, 11, 129, 86, 32, 74, 24, 94, 72, 72, 83, 90, 44
              |6, 32, 36, 78, 11, 42, 50, 15, 27, 28, 57, 23, 14, 58, 43, 55, 42, 36, 22, 59, 65, 44, 41, 37, 31, 30, 70, 53, 14, 43, 43, 68, 27, 65, 42, 59, 18, 12, 54, 31, 20, 53, 63, 60, 61, 53, 17, 77, 30, 54, 12, 59, 40, 33, 26, 30, 18, 22, 17, 55, 27, 57, 23, 31, 20, 37, 19, 79, 35, 65, 22, 71, 21, 65, 39, 63, 42, 33, 37, 58, 65, 64, 45, 32, 22, 27, 20, 64, 34, 13, 56, 35, 53, 72, 47, 33, 15, 55, 49, 55, 16, 39, 57, 75, 16, 31, 52, 20, 68, 63, 33, 40, 13, 46, 69, 29, 61, 19, 85, 62, 36, 36, 42, 48, 35, 52, 57, 16, 69, 71, 46, 51, 54, 62, 23, 47, 52, 28, 47, 51, 35, 37, 52, 60, 57, 35, 18, 51, 34, 65, 81, 35, 41, 56, 38, 56, 77, 17, 51, 47, 25, 16, 22, 69, 50, 13, 44, 67, 30, 32, 38, 22, 11, 7, 45, 18, 58, 33, 38, 38, 77, 23, 63, 60, 67, 50, 15, 59, 29, 21, 19, 49, 58, 31, 69, 38, 25, 33, 50, 13, 50, 72, 25, 38, 56, 58, 18, 15, 23, 35, 75, 42, 69, 60, 46, 66, 43, 77, 37, 40, 75, 72, 72, 36, 70, 35, 34, 35, 44, 32, 26, 52, 58, 41, 27, 24, 10, 27, 31, 42, 44, 42, 22, 55, 35, 36, 51, 11, 34, 29, 31, 43, 39, 27, 65, 31, 17, 51, 51, 20, 43, 60, 12, 52, 62, 38, 37, 68, 31, 33, 50, 23, 35, 40, 51, 57, 17, 33, 71, 45, 29, 25, 28, 77, 44, 31, 60, 58, 47, 77, 28, 28, 47, 52, 61, 58, 13, 25, 33, 15
              |50, 68, 68, 73, 54, 88, 48, 59, 38, 18, 98, 67, 56, 47, 82, 99, 78, 68, 67, 94, 106, 72, 78, 42, 51, 76, 110, 96, 36, 86, 81, 58, 53, 104, 34, 81, 59, 45, 64, 20, 26, 77, 89, 83, 81, 75, 47, 72, 55, 94, 41, 31, 77, 13, 59, 46, 31, 35, 57, 90, 66, 17, 69, 31, 30, 41, 42, 90, 72, 74, 35, 106, 30, 64, 57, 97, 63, 79, 75, 16, 67, 62, 90, 55, 50, 59, 26, 91, 57, 49, 11, 72, 54, 113, 4, 24, 52, 93, 50, 96, 61, 83, 101, 77, 57, 77, 49, 51, 84, 105, 78, 46, 47, 58, 106, 26, 35, 37, 92, 59, 75, 11, 52, 49, 38, 41, 19, 51, 97, 97, 4, 34, 22, 80, 48, 13, 26, 72, 93, 6, 19, 35, 53, 99, 101, 80, 63, 80, 57, 107, 80, 22, 71, 46, 16, 10, 90, 36, 91, 80, 67, 57, 30, 82, 5, 35, 11, 85, 66, 63, 82, 48, 35, 39, 83, 46, 98, 78, 80, 27, 91, 44, 89, 93, 103, 84, 59, 64, 67, 59, 50, 81, 30, 76, 78, 8, 54, 64, 40, 45, 15, 64, 69, 78, 14, 84, 43, 60, 26, 79, 117, 83, 62, 42, 88, 86, 21, 83, 24, 77, 80, 71, 64, 19, 77, 17, 75, 80, 5, 35, 72, 97, 41, 8, 35, 53, 46, 41, 55, 67, 13, 78, 49, 19, 46, 82, 31, 36, 12, 30, 40, 73, 78, 62, 19, 18, 50, 35, 6, 58, 69, 22, 35, 49, 49, 14, 80, 85, 34, 62, 40, 29, 80, 81, 21, 94, 61, 42, 89, 63, 40, 43, 55, 85, 11, 77, 76, 16, 4, 118, 73, 21, 67, 24, 86, 67, 59, 70, 77, 31
              |23, 19, 62, 102, 36, 49, 74, 24, 51, 38, 77, 44, 39, 79, 65, 71, 66, 17, 39, 83, 84, 70, 65, 61, 57, 46, 90, 69, 37, 62, 66, 90, 54, 86, 62, 85, 20, 15, 80, 47, 35, 80, 89, 87, 88, 79, 43, 101, 4, 75, 16, 75, 64, 39, 52, 8, 38, 45, 17, 78, 21, 67, 34, 51, 39, 60, 44, 106, 59, 91, 16, 94, 22, 89, 66, 86, 68, 46, 61, 66, 90, 88, 54, 6, 4, 9, 30, 89, 60, 14, 62, 23, 77, 91, 54, 51, 14, 76, 73, 75, 36, 40, 73, 100, 41, 38, 75, 7, 94, 80, 38, 64, 14, 72, 90, 25, 78, 15, 112, 86, 59, 40, 68, 72, 58, 73, 68, 42, 95, 96, 53, 70, 68, 89, 49, 59, 68, 31, 59, 57, 50, 59, 76, 81, 71, 38, 35, 77, 60, 82, 106, 51, 20, 78, 36, 59, 104, 17, 72, 72, 24, 41, 21, 96, 56, 21, 56, 93, 55, 58, 55, 4, 31, 28, 67, 44, 79, 49, 33, 57, 104, 7, 89, 84, 90, 74, 24, 84, 54, 46, 46, 74, 74, 38, 95, 46, 51, 59, 71, 39, 62, 95, 30, 30, 64, 84, 44, 29, 40, 52, 92, 63, 92, 80, 64, 92, 59, 103, 55, 28, 101, 96, 95, 33, 96, 34, 55, 51, 47, 55, 40, 64, 78, 51, 50, 51, 17, 52, 5, 69, 56, 28, 48, 67, 60, 50, 69, 23, 40, 21, 55, 69, 29, 14, 69, 33, 44, 71, 56, 14, 69, 71, 24, 75, 83, 51, 55, 95, 19, 59, 71, 43, 52, 62, 65, 79, 39, 57, 98, 72, 13, 50, 4, 103, 43, 38, 86, 66, 54, 95, 43, 42, 73, 67, 87, 83, 33, 38, 49, 31
              |31, 39, 66, 94, 42, 66, 66, 38, 46, 25, 88, 54, 45, 70, 74, 85, 73, 37, 51, 90, 95, 73, 72, 55, 56, 59, 101, 82, 34, 73, 74, 81, 54, 96, 53, 87, 35, 22, 77, 35, 26, 81, 92, 88, 88, 81, 44, 93, 23, 85, 20, 61, 71, 23, 56, 13, 32, 39, 33, 86, 39, 50, 48, 43, 32, 54, 43, 103, 66, 88, 9, 102, 11, 82, 64, 93, 68, 60, 68, 49, 85, 81, 70, 23, 21, 29, 20, 93, 61, 26, 43, 43, 71, 103, 37, 40, 28, 86, 66, 86, 46, 59, 87, 95, 47, 54, 67, 23, 94, 93, 55, 59, 24, 69, 100, 8, 64, 12, 108, 79, 67, 23, 63, 65, 51, 63, 51, 45, 99, 100, 36, 59, 52, 89, 48, 43, 54, 48, 74, 39, 37, 51, 70, 91, 85, 55, 47, 81, 61, 95, 100, 40, 39, 68, 17, 40, 102, 14, 82, 78, 42, 47, 10, 94, 38, 18, 40, 94, 61, 61, 68, 18, 28, 28, 76, 44, 89, 62, 52, 46, 103, 14, 92, 91, 98, 81, 38, 79, 60, 52, 47, 79, 59, 54, 92, 30, 53, 62, 61, 40, 46, 86, 46, 50, 47, 87, 42, 41, 32, 64, 105, 73, 84, 68, 76, 93, 45, 99, 43, 47, 97, 90, 86, 14, 92, 16, 65, 64, 28, 47, 53, 79, 66, 35, 43, 52, 24, 47, 23, 70, 41, 48, 48, 51, 55, 64, 57, 21, 24, 4, 50, 73, 48, 33, 50, 16, 46, 59, 37, 31, 71, 55, 21, 67, 73, 36, 67, 94, 1, 62, 61, 35, 64, 71, 50, 88, 48, 52, 98, 71, 7, 47, 24, 100, 24, 54, 85, 49, 36, 107, 56, 31, 73, 53, 90, 80, 43, 52, 62, 26
              |57, 64, 41, 97, 49, 31, 82, 51, 69, 85, 13, 36, 47, 92, 25, 4, 31, 70, 38, 31, 13, 46, 31, 74, 59, 30, 19, 6, 67, 17, 27, 97, 54, 20, 84, 55, 55, 66, 70, 84, 76, 52, 49, 54, 60, 54, 57, 97, 76, 16, 69, 105, 32, 91, 46, 83, 72, 70, 58, 29, 57, 109, 41, 77, 73, 74, 62, 80, 34, 75, 79, 33, 80, 86, 61, 32, 56, 29, 32, 112, 83, 87, 25, 78, 72, 68, 79, 47, 55, 64, 112, 62, 79, 17, 103, 83, 62, 20, 78, 12, 43, 42, 3, 88, 45, 38, 82, 69, 67, 6, 39, 73, 65, 67, 25, 88, 105, 77, 88, 88, 30, 94, 69, 79, 75, 90, 109, 52, 48, 51, 102, 93, 104, 62, 58, 100, 99, 46, 19, 107, 87, 79, 80, 19, 5, 42, 42, 43, 55, 7, 96, 86, 74, 90, 97, 113, 76, 75, 16, 35, 52, 46, 81, 72, 106, 72, 98, 63, 40, 45, 21, 74, 68, 65, 24, 58, 16, 26, 52, 85, 74, 77, 48, 35, 29, 33, 51, 77, 38, 44, 54, 36, 104, 38, 78, 94, 52, 45, 88, 58, 102, 96, 46, 56, 110, 49, 61, 47, 77, 24, 17, 22, 95, 99, 14, 60, 92, 84, 86, 62, 85, 89, 96, 96, 79, 94, 28, 25, 102, 75, 36, 13, 97, 97, 71, 52, 64, 67, 77, 50, 97, 65, 56, 106, 68, 25, 96, 70, 92, 87, 70, 42, 59, 65, 121, 90, 53, 93, 108, 61, 49, 111, 71, 82, 96, 91, 23, 67, 88, 47, 88, 74, 24, 24, 101, 23, 43, 70, 66, 60, 85, 63, 74, 82, 103, 38, 64, 112, 104, 20, 33, 82, 57, 100, 51, 72, 46, 37, 27, 72
              |49, 74, 23, 37, 38, 68, 18, 54, 21, 46, 54, 41, 36, 28, 40, 63, 33, 79, 47, 42, 61, 19, 34, 16, 12, 52, 63, 60, 34, 49, 37, 33, 17, 56, 26, 24, 59, 55, 11, 38, 41, 20, 32, 26, 23, 18, 26, 36, 73, 50, 53, 45, 33, 52, 23, 72, 35, 28, 59, 40, 67, 55, 55, 27, 35, 17, 25, 37, 31, 22, 59, 54, 56, 24, 4, 45, 9, 56, 33, 59, 23, 25, 67, 75, 65, 70, 47, 35, 12, 56, 63, 77, 15, 68, 55, 34, 58, 48, 14, 53, 44, 72, 65, 32, 35, 62, 18, 64, 27, 64, 64, 13, 56, 3, 56, 60, 44, 58, 42, 24, 36, 55, 6, 15, 20, 27, 54, 29, 40, 40, 54, 33, 47, 23, 21, 48, 41, 64, 65, 59, 39, 22, 15, 52, 65, 68, 47, 26, 12, 66, 39, 36, 84, 26, 62, 65, 35, 56, 49, 31, 64, 34, 57, 27, 58, 51, 48, 28, 27, 21, 50, 65, 39, 41, 40, 25, 53, 51, 76, 31, 36, 65, 33, 40, 52, 34, 54, 16, 30, 30, 25, 31, 45, 61, 26, 50, 20, 21, 26, 30, 49, 33, 61, 77, 57, 27, 26, 50, 36, 49, 72, 43, 31, 36, 51, 28, 38, 34, 34, 81, 32, 30, 33, 63, 26, 60, 40, 53, 60, 22, 53, 66, 34, 49, 24, 21, 53, 19, 74, 14, 46, 83, 22, 51, 12, 56, 36, 48, 52, 63, 18, 23, 79, 70, 70, 56, 27, 32, 62, 63, 16, 54, 47, 18, 32, 43, 48, 28, 67, 18, 26, 32, 52, 41, 45, 46, 40, 16, 32, 6, 68, 20, 72, 34, 64, 62, 19, 59, 56, 73, 51, 40, 10, 43, 30, 14, 45, 52, 50, 41
              |49, 67, 15, 67, 36, 45, 53, 48, 45, 67, 19, 28, 33, 64, 8, 29, 5, 73, 34, 12, 25, 16, 6, 47, 33, 32, 28, 26, 48, 19, 6, 68, 30, 21, 58, 26, 53, 58, 40, 63, 59, 22, 23, 25, 31, 24, 37, 67, 74, 14, 59, 78, 7, 73, 24, 77, 53, 48, 55, 7, 59, 86, 42, 54, 54, 48, 41, 51, 12, 45, 69, 24, 68, 56, 33, 15, 27, 35, 10, 89, 53, 58, 41, 76, 67, 67, 63, 21, 28, 57, 91, 67, 50, 33, 82, 60, 57, 12, 50, 18, 35, 53, 31, 58, 31, 45, 54, 64, 39, 29, 47, 46, 58, 38, 23, 75, 79, 67, 60, 58, 12, 76, 41, 50, 50, 62, 86, 34, 26, 27, 81, 67, 79, 33, 35, 77, 74, 50, 37, 86, 65, 53, 51, 17, 32, 51, 37, 14, 28, 31, 66, 63, 78, 62, 81, 92, 48, 65, 14, 5, 54, 31, 69, 43, 85, 60, 76, 34, 18, 20, 24, 68, 52, 51, 7, 38, 17, 29, 61, 61, 47, 70, 22, 13, 21, 4, 48, 47, 18, 27, 34, 6, 78, 44, 48, 75, 29, 19, 61, 40, 79, 66, 49, 64, 87, 21, 40, 43, 57, 26, 37, 13, 65, 71, 20, 32, 69, 55, 62, 69, 55, 59, 66, 81, 50, 79, 17, 29, 83, 50, 37, 35, 69, 76, 48, 30, 56, 43, 75, 21, 74, 72, 34, 82, 41, 33, 70, 57, 74, 76, 45, 13, 67, 65, 99, 74, 34, 66, 88, 59, 20, 86, 58, 54, 67, 70, 23, 38, 78, 21, 61, 54, 28, 12, 76, 11, 32, 45, 38, 30, 76, 40, 72, 52, 86, 45, 35, 89, 83, 38, 33, 62, 27, 75, 23, 42, 38, 37, 28, 56
              |56, 81, 53, 42, 52, 88, 19, 64, 25, 31, 85, 62, 52, 16, 69, 91, 64, 83, 65, 76, 93, 52, 64, 20, 34, 73, 95, 88, 35, 77, 67, 26, 39, 89, 10, 57, 67, 56, 37, 22, 33, 54, 66, 59, 55, 52, 39, 41, 72, 81, 53, 11, 63, 33, 48, 66, 32, 28, 66, 73, 76, 22, 71, 19, 30, 20, 34, 61, 59, 45, 53, 88, 47, 33, 35, 79, 42, 77, 62, 27, 37, 31, 89, 73, 65, 73, 39, 69, 40, 60, 32, 84, 25, 100, 28, 17, 63, 79, 22, 84, 60, 88, 93, 46, 53, 79, 20, 65, 56, 94, 81, 22, 58, 33, 89, 48, 12, 53, 62, 28, 64, 35, 28, 21, 18, 10, 21, 45, 74, 74, 27, 3, 14, 55, 36, 18, 8, 77, 89, 30, 18, 15, 24, 85, 93, 84, 63, 60, 40, 97, 48, 17, 87, 15, 43, 36, 61, 51, 79, 63, 75, 52, 48, 54, 29, 47, 20, 59, 54, 49, 75, 64, 39, 43, 70, 37, 85, 74, 88, 11, 63, 61, 67, 74, 86, 67, 64, 35, 56, 51, 41, 64, 11, 78, 49, 28, 42, 49, 9, 40, 18, 33, 74, 88, 25, 61, 35, 63, 28, 73, 104, 72, 30, 12, 79, 60, 11, 53, 13, 89, 50, 40, 33, 46, 47, 43, 66, 76, 35, 19, 71, 92, 11, 24, 24, 41, 56, 27, 73, 47, 18, 91, 38, 18, 26, 78, 2, 46, 33, 52, 23, 55, 88, 75, 38, 40, 43, 4, 33, 69, 49, 21, 44, 20, 18, 20, 73, 58, 57, 47, 9, 27, 75, 70, 12, 79, 57, 23, 62, 40, 61, 31, 72, 55, 42, 79, 50, 27, 29, 105, 71, 26, 44, 9, 63, 39, 59, 70, 73, 37
              |51, 71, 12, 58, 37, 53, 46, 51, 41, 64, 27, 32, 35, 56, 17, 38, 10, 77, 38, 15, 34, 9, 11, 41, 28, 38, 35, 36, 46, 27, 13, 59, 26, 28, 52, 17, 57, 59, 32, 59, 56, 13, 16, 17, 22, 15, 35, 58, 76, 23, 60, 72, 11, 71, 22, 78, 50, 45, 58, 13, 64, 80, 47, 49, 51, 42, 38, 43, 15, 36, 69, 27, 67, 48, 26, 18, 19, 42, 14, 84, 44, 49, 49, 78, 69, 71, 61, 16, 22, 59, 87, 72, 42, 40, 78, 56, 60, 20, 42, 27, 39, 60, 40, 49, 33, 51, 46, 66, 30, 37, 53, 39, 60, 30, 28, 74, 72, 67, 51, 49, 18, 74, 34, 43, 44, 55, 80, 33, 21, 23, 77, 60, 74, 24, 32, 72, 68, 55, 46, 82, 61, 47, 43, 25, 41, 57, 41, 5, 22, 39, 57, 59, 82, 54, 79, 88, 39, 65, 23, 4, 59, 32, 68, 34, 81, 60, 71, 26, 18, 17, 32, 70, 51, 50, 16, 35, 26, 35, 67, 55, 38, 71, 16, 14, 25, 6, 51, 38, 20, 27, 32, 3, 72, 50, 39, 71, 26, 16, 54, 38, 74, 58, 54, 70, 82, 13, 38, 46, 54, 33, 45, 21, 56, 64, 28, 24, 63, 46, 57, 75, 46, 50, 58, 79, 41, 77, 23, 36, 80, 45, 42, 44, 62, 72, 44, 27, 57, 39, 77, 14, 70, 78, 31, 76, 35, 40, 63, 57, 71, 75, 40, 6, 72, 69, 95, 73, 32, 59, 84, 62, 12, 81, 57, 46, 59, 66, 30, 30, 78, 17, 54, 50, 35, 20, 71, 18, 35, 39, 30, 22, 77, 36, 74, 44, 83, 51, 25, 84, 79, 45, 38, 59, 19, 69, 16, 33, 41, 42, 35, 54
              |28, 20, 50, 105, 32, 14, 80, 19, 59, 61, 50, 28, 33, 89, 44, 40, 49, 27, 22, 62, 55, 59, 47, 68, 57, 20, 61, 39, 48, 36, 46, 98, 51, 59, 75, 74, 19, 33, 78, 65, 54, 69, 74, 75, 79, 70, 45, 105, 35, 49, 37, 93, 47, 65, 45, 44, 52, 55, 21, 57, 15, 90, 13, 64, 54, 68, 50, 99, 44, 88, 46, 70, 49, 92, 64, 64, 63, 17, 44, 91, 91, 92, 20, 36, 33, 27, 52, 73, 57, 29, 89, 18, 81, 61, 80, 67, 26, 52, 78, 48, 25, 5, 41, 100, 34, 7, 82, 30, 86, 50, 5, 70, 31, 72, 65, 56, 95, 43, 107, 91, 41, 67, 70, 78, 67, 84, 91, 41, 78, 80, 79, 84, 88, 80, 50, 81, 86, 6, 25, 84, 69, 70, 81, 56, 39, 2, 22, 63, 57, 51, 107, 69, 30, 87, 67, 88, 96, 43, 46, 55, 11, 35, 50, 89, 83, 43, 78, 83, 43, 49, 29, 35, 45, 41, 46, 47, 52, 24, 9, 72, 95, 40, 74, 64, 66, 56, 19, 85, 40, 38, 45, 57, 92, 9, 92, 71, 48, 49, 82, 44, 84, 101, 9, 12, 89, 71, 49, 20, 57, 27, 61, 40, 98, 93, 37, 81, 77, 100, 71, 18, 99, 98, 101, 64, 93, 64, 35, 24, 75, 65, 16, 31, 91, 75, 59, 48, 32, 58, 36, 61, 78, 21, 48, 89, 64, 21, 85, 42, 66, 53, 62, 57, 15, 22, 97, 61, 43, 84, 84, 22, 60, 94, 44, 82, 93, 72, 30, 86, 53, 52, 82, 57, 25, 40, 85, 56, 29, 64, 88, 67, 47, 55, 33, 98, 74, 7, 80, 91, 80, 64, 20, 62, 67, 86, 74, 82, 25, 16, 24, 49
              |62, 74, 35, 85, 51, 45, 73, 59, 65, 85, 6, 40, 48, 84, 20, 19, 24, 81, 44, 16, 6, 36, 24, 67, 53, 38, 8, 18, 66, 21, 21, 87, 50, 3, 78, 41, 63, 72, 59, 82, 77, 40, 34, 40, 46, 42, 55, 85, 84, 9, 74, 99, 25, 92, 43, 90, 71, 67, 65, 16, 67, 105, 50, 74, 72, 68, 60, 65, 30, 62, 84, 16, 84, 75, 53, 16, 47, 39, 27, 109, 71, 76, 39, 86, 79, 77, 80, 31, 48, 70, 110, 74, 70, 13, 101, 80, 69, 8, 70, 8, 48, 55, 20, 75, 47, 49, 74, 76, 53, 12, 51, 66, 71, 58, 9, 91, 99, 81, 73, 77, 27, 95, 61, 70, 70, 82, 106, 51, 32, 34, 100, 87, 99, 48, 54, 97, 94, 56, 34, 106, 85, 73, 70, 3, 22, 54, 48, 31, 48, 14, 83, 83, 85, 82, 98, 112, 61, 80, 11, 25, 62, 47, 85, 58, 104, 76, 95, 48, 36, 40, 28, 80, 69, 67, 19, 56, 4, 34, 65, 81, 59, 83, 33, 19, 12, 22, 59, 66, 35, 44, 52, 25, 98, 48, 64, 93, 48, 39, 81, 58, 99, 85, 56, 68, 107, 35, 59, 54, 76, 31, 17, 20, 84, 91, 19, 45, 89, 70, 82, 74, 71, 77, 85, 98, 66, 96, 29, 33, 102, 70, 44, 29, 89, 95, 68, 49, 70, 63, 85, 41, 94, 77, 53, 102, 62, 35, 90, 73, 92, 91, 65, 33, 71, 74, 119, 92, 52, 86, 107, 69, 40, 107, 74, 74, 87, 89, 28, 52, 93, 41, 81, 72, 32, 22, 97, 9, 46, 65, 51, 50, 90, 59, 82, 67, 104, 49, 51, 109, 102, 17, 40, 81, 47, 95, 36, 60, 51, 45, 34, 73
              |22, 41, 21, 75, 11, 30, 52, 21, 34, 47, 35, 3, 8, 62, 21, 35, 22, 47, 9, 39, 43, 30, 21, 41, 28, 14, 48, 32, 29, 21, 22, 70, 22, 43, 50, 45, 26, 31, 48, 47, 38, 40, 47, 46, 49, 40, 20, 75, 46, 32, 33, 70, 20, 53, 15, 50, 34, 33, 28, 34, 33, 72, 18, 41, 35, 41, 25, 69, 16, 58, 43, 50, 43, 63, 34, 42, 33, 18, 17, 74, 61, 63, 30, 48, 40, 40, 41, 46, 27, 30, 74, 42, 52, 51, 65, 46, 30, 33, 50, 34, 8, 34, 37, 70, 7, 24, 53, 37, 57, 41, 26, 42, 31, 42, 47, 51, 71, 41, 77, 62, 15, 56, 41, 49, 41, 58, 72, 15, 52, 53, 64, 60, 68, 50, 23, 63, 64, 26, 30, 69, 50, 45, 52, 39, 36, 30, 10, 35, 27, 43, 77, 49, 52, 60, 59, 75, 66, 39, 29, 28, 29, 8, 44, 59, 68, 35, 61, 54, 13, 19, 17, 41, 30, 27, 23, 22, 36, 15, 38, 49, 66, 43, 46, 40, 46, 31, 21, 55, 11, 9, 18, 30, 69, 22, 62, 56, 19, 19, 56, 21, 65, 72, 24, 40, 72, 43, 24, 16, 39, 15, 53, 20, 69, 67, 24, 52, 56, 69, 49, 45, 69, 68, 72, 58, 63, 56, 12, 17, 64, 40, 14, 33, 65, 59, 35, 19, 29, 32, 47, 30, 60, 48, 21, 69, 36, 19, 61, 33, 54, 51, 36, 27, 43, 38, 83, 52, 16, 60, 70, 32, 30, 74, 34, 53, 66, 54, 16, 57, 52, 22, 56, 37, 16, 19, 65, 35, 5, 37, 58, 37, 50, 28, 44, 68, 65, 24, 50, 74, 66, 55, 12, 44, 37, 65, 46, 51, 11, 14, 14, 34
              |67, 83, 33, 75, 55, 56, 67, 65, 63, 85, 18, 45, 52, 77, 24, 32, 24, 89, 50, 8, 18, 31, 25, 64, 51, 46, 16, 30, 67, 30, 23, 79, 48, 11, 74, 31, 70, 76, 51, 81, 77, 31, 23, 30, 36, 34, 56, 75, 91, 17, 78, 94, 26, 92, 43, 95, 72, 67, 72, 12, 75, 103, 58, 72, 72, 64, 59, 53, 31, 53, 88, 5, 87, 66, 48, 5, 42, 48, 29, 107, 62, 68, 51, 93, 85, 84, 82, 20, 45, 75, 109, 82, 63, 22, 100, 78, 75, 14, 64, 19, 53, 66, 33, 65, 50, 59, 68, 82, 42, 25, 60, 62, 76, 52, 7, 94, 94, 85, 61, 69, 30, 95, 56, 64, 67, 77, 103, 53, 19, 22, 99, 82, 96, 38, 54, 95, 91, 65, 45, 105, 83, 70, 64, 11, 35, 64, 54, 24, 45, 26, 73, 81, 94, 76, 100, 111, 49, 84, 20, 21, 70, 50, 88, 47, 103, 79, 94, 37, 37, 38, 37, 86, 71, 70, 22, 56, 15, 42, 75, 78, 47, 88, 22, 9, 2, 17, 65, 58, 37, 46, 52, 20, 94, 58, 54, 93, 47, 38, 76, 59, 97, 77, 64, 78, 105, 25, 59, 60, 76, 39, 27, 26, 75, 85, 29, 34, 86, 59, 80, 84, 60, 67, 77, 100, 56, 97, 34, 42, 102, 68, 52, 41, 84, 94, 66, 48, 74, 61, 92, 36, 92, 87, 53, 99, 58, 45, 86, 76, 93, 95, 63, 28, 81, 82, 117, 93, 53, 82, 107, 76, 35, 103, 77, 68, 80, 88, 36, 41, 97, 39, 76, 72, 41, 27, 93, 10, 50, 62, 39, 44, 95, 58, 89, 56, 105, 59, 42, 107, 101, 26, 48, 81, 40, 92, 25, 52, 56, 53, 42, 75
              |56, 81, 44, 32, 49, 84, 6, 63, 22, 38, 76, 57, 48, 9, 61, 83, 55, 85, 61, 65, 83, 42, 55, 13, 26, 68, 85, 80, 35, 69, 58, 19, 32, 79, 9, 45, 67, 58, 25, 28, 37, 42, 54, 47, 43, 40, 36, 31, 76, 72, 55, 22, 54, 42, 40, 71, 34, 27, 66, 63, 76, 34, 68, 20, 32, 13, 31, 48, 51, 33, 57, 77, 52, 22, 25, 68, 31, 72, 54, 39, 25, 20, 84, 77, 68, 75, 43, 57, 31, 61, 44, 85, 12, 90, 39, 22, 64, 70, 9, 75, 57, 85, 85, 35, 48, 76, 7, 67, 44, 86, 78, 12, 60, 21, 79, 55, 21, 57, 50, 17, 56, 44, 17, 9, 14, 4, 34, 40, 62, 62, 38, 10, 27, 42, 31, 30, 20, 75, 83, 42, 26, 12, 11, 75, 86, 81, 60, 49, 31, 88, 38, 23, 89, 7, 52, 48, 49, 55, 70, 53, 74, 47, 53, 41, 41, 50, 31, 47, 46, 41, 69, 67, 40, 44, 61, 34, 75, 68, 87, 17, 50, 65, 55, 63, 75, 57, 63, 22, 49, 45, 36, 54, 22, 75, 36, 38, 35, 41, 4, 37, 30, 24, 72, 87, 38, 50, 32, 61, 31, 67, 95, 64, 21, 14, 72, 48, 21, 41, 20, 89, 38, 29, 24, 54, 35, 51, 59, 70, 46, 17, 67, 85, 12, 35, 22, 35, 57, 23, 76, 37, 29, 91, 33, 30, 18, 73, 14, 49, 41, 59, 18, 45, 88, 76, 51, 48, 38, 9, 45, 69, 38, 33, 47, 7, 13, 29, 67, 45, 63, 38, 4, 28, 69, 62, 25, 69, 53, 17, 49, 29, 66, 26, 74, 43, 52, 76, 37, 39, 40, 95, 66, 32, 33, 22, 51, 27, 56, 66, 67, 40
              |48, 72, 12, 47, 35, 59, 33, 51, 31, 55, 39, 34, 33, 43, 26, 49, 19, 77, 40, 27, 46, 4, 20, 29, 18, 43, 47, 46, 39, 36, 23, 47, 18, 41, 40, 15, 56, 56, 20, 49, 48, 9, 20, 16, 17, 9, 28, 47, 74, 35, 56, 60, 19, 62, 18, 74, 42, 36, 57, 25, 64, 69, 50, 38, 42, 30, 30, 37, 19, 27, 64, 39, 61, 36, 13, 30, 7, 47, 21, 73, 33, 37, 57, 76, 66, 69, 54, 22, 12, 56, 76, 73, 30, 53, 68, 45, 58, 33, 30, 39, 39, 65, 51, 40, 31, 55, 34, 64, 25, 49, 57, 27, 57, 17, 41, 67, 59, 62, 45, 37, 24, 65, 21, 30, 32, 42, 68, 28, 28, 28, 66, 48, 62, 19, 24, 61, 56, 58, 54, 72, 51, 36, 30, 37, 52, 61, 42, 11, 12, 51, 48, 48, 82, 42, 71, 78, 35, 60, 34, 16, 60, 31, 62, 28, 70, 55, 60, 23, 18, 14, 39, 67, 44, 45, 26, 28, 38, 41, 70, 44, 34, 67, 20, 25, 37, 19, 51, 27, 21, 25, 25, 16, 59, 54, 30, 61, 19, 13, 41, 32, 63, 46, 56, 72, 71, 15, 30, 46, 45, 39, 57, 30, 44, 51, 38, 22, 52, 38, 46, 76, 38, 39, 46, 71, 32, 69, 29, 43, 71, 34, 46, 54, 49, 61, 34, 20, 54, 28, 75, 2, 59, 79, 24, 65, 24, 46, 51, 52, 62, 69, 29, 8, 74, 68, 84, 64, 27, 47, 74, 61, 1, 69, 51, 34, 47, 55, 37, 25, 72, 11, 41, 41, 41, 28, 59, 31, 35, 28, 27, 9, 72, 26, 72, 37, 74, 55, 18, 73, 68, 58, 42, 50, 7, 57, 18, 22, 41, 45, 40, 47
              |40, 54, 68, 85, 48, 77, 58, 49, 42, 17, 94, 61, 51, 60, 79, 93, 77, 52, 59, 93, 102, 73, 76, 49, 54, 68, 107, 90, 34, 80, 78, 71, 54, 101, 44, 85, 48, 33, 72, 26, 24, 80, 92, 87, 86, 79, 45, 85, 39, 90, 29, 47, 75, 12, 58, 29, 30, 36, 45, 89, 53, 35, 59, 36, 29, 48, 42, 98, 70, 82, 21, 106, 17, 75, 61, 96, 66, 70, 72, 33, 77, 73, 81, 39, 35, 44, 19, 93, 60, 37, 27, 58, 64, 110, 21, 31, 40, 91, 59, 92, 54, 72, 95, 88, 52, 66, 59, 37, 90, 100, 67, 53, 35, 64, 104, 11, 51, 23, 102, 70, 72, 9, 58, 58, 45, 53, 36, 48, 99, 100, 21, 48, 38, 86, 48, 29, 41, 61, 84, 23, 27, 43, 63, 97, 94, 68, 55, 82, 60, 102, 91, 30, 55, 59, 1, 24, 98, 23, 88, 80, 55, 52, 17, 90, 22, 25, 26, 91, 64, 63, 75, 33, 30, 32, 80, 45, 95, 71, 66, 37, 99, 29, 92, 93, 102, 83, 49, 73, 64, 55, 48, 82, 46, 66, 87, 16, 54, 64, 51, 42, 31, 77, 58, 64, 31, 87, 42, 51, 27, 72, 112, 79, 74, 56, 83, 91, 34, 93, 34, 63, 90, 82, 77, 2, 86, 3, 70, 73, 13, 41, 63, 89, 55, 21, 39, 53, 34, 44, 39, 70, 28, 63, 49, 36, 51, 74, 45, 27, 12, 14, 45, 74, 63, 48, 34, 7, 48, 49, 21, 45, 71, 40, 26, 59, 62, 25, 74, 91, 17, 63, 51, 31, 73, 77, 37, 92, 54, 47, 95, 68, 23, 45, 39, 94, 8, 66, 82, 33, 21, 114, 65, 23, 71, 40, 90, 75, 51, 62, 70, 26
              |54, 70, 75, 80, 59, 92, 55, 63, 45, 23, 104, 72, 62, 53, 88, 105, 85, 69, 72, 100, 112, 78, 84, 49, 58, 81, 116, 102, 42, 91, 87, 64, 60, 110, 41, 88, 63, 48, 71, 27, 32, 84, 96, 90, 88, 82, 53, 79, 56, 100, 44, 37, 83, 17, 66, 46, 37, 41, 60, 96, 69, 21, 73, 38, 36, 48, 49, 97, 78, 81, 37, 113, 33, 71, 64, 103, 70, 83, 81, 18, 74, 69, 95, 56, 52, 61, 30, 98, 64, 53, 11, 74, 61, 119, 10, 31, 55, 100, 57, 102, 66, 87, 107, 84, 63, 81, 56, 53, 91, 111, 82, 53, 50, 65, 112, 27, 40, 39, 99, 66, 81, 14, 59, 56, 45, 48, 23, 57, 104, 104, 11, 41, 27, 87, 54, 20, 32, 76, 97, 9, 26, 42, 60, 105, 106, 83, 68, 87, 64, 113, 86, 29, 72, 53, 16, 7, 97, 39, 97, 87, 71, 62, 32, 89, 9, 39, 18, 92, 72, 69, 87, 50, 40, 43, 89, 52, 104, 83, 83, 34, 98, 45, 96, 100, 110, 90, 63, 71, 73, 65, 56, 88, 35, 80, 85, 15, 61, 70, 46, 50, 21, 71, 73, 81, 17, 91, 49, 65, 32, 84, 123, 89, 68, 48, 94, 93, 28, 90, 31, 79, 87, 78, 71, 19, 84, 18, 81, 85, 6, 42, 76, 102, 47, 15, 42, 60, 49, 48, 56, 74, 20, 80, 55, 24, 53, 86, 37, 40, 16, 31, 47, 80, 80, 64, 17, 20, 56, 42, 6, 61, 75, 26, 39, 56, 55, 21, 86, 92, 34, 69, 46, 36, 85, 87, 27, 100, 66, 49, 96, 70, 40, 50, 56, 92, 9, 81, 83, 18, 9, 124, 78, 27, 74, 30, 93, 74, 64, 75, 82, 36
              |49, 73, 13, 45, 36, 61, 31, 52, 30, 55, 41, 36, 34, 42, 28, 51, 21, 78, 42, 29, 48, 6, 22, 28, 17, 45, 49, 48, 39, 38, 25, 45, 18, 42, 38, 14, 57, 57, 18, 48, 48, 9, 21, 16, 17, 8, 29, 45, 75, 37, 56, 58, 21, 61, 19, 75, 42, 35, 58, 27, 65, 67, 51, 38, 42, 29, 30, 36, 21, 25, 64, 40, 61, 34, 12, 31, 6, 49, 23, 72, 31, 35, 59, 77, 67, 70, 54, 22, 12, 57, 75, 75, 28, 55, 67, 44, 59, 34, 28, 41, 40, 66, 53, 38, 32, 57, 32, 65, 24, 51, 59, 25, 57, 16, 42, 67, 58, 62, 43, 36, 26, 64, 20, 28, 31, 41, 67, 29, 28, 29, 65, 46, 60, 17, 24, 60, 55, 59, 56, 71, 50, 35, 28, 39, 54, 63, 43, 13, 12, 53, 46, 47, 83, 40, 71, 77, 33, 60, 36, 18, 62, 32, 62, 26, 69, 55, 59, 22, 20, 15, 41, 67, 44, 45, 28, 28, 40, 43, 72, 43, 33, 68, 21, 27, 38, 21, 52, 25, 23, 26, 26, 17, 58, 55, 29, 61, 20, 14, 40, 33, 62, 44, 57, 74, 70, 16, 30, 48, 45, 41, 59, 32, 42, 49, 40, 21, 51, 36, 45, 78, 36, 37, 44, 71, 30, 68, 31, 44, 70, 33, 47, 56, 48, 61, 33, 21, 55, 28, 76, 3, 58, 81, 24, 64, 23, 48, 49, 52, 61, 69, 28, 10, 76, 69, 82, 64, 28, 45, 73, 62, 3, 67, 52, 32, 45, 54, 39, 24, 73, 12, 40, 41, 43, 30, 58, 33, 36, 27, 26, 8, 73, 26, 73, 35, 74, 57, 16, 72, 68, 60, 44, 49, 5, 56, 18, 20, 42, 47, 42, 47
              |49, 69, 62, 65, 51, 85, 40, 58, 32, 16, 93, 63, 52, 39, 76, 95, 72, 70, 64, 87, 100, 65, 72, 34, 45, 72, 104, 92, 32, 81, 75, 50, 47, 98, 26, 74, 59, 45, 56, 14, 23, 70, 82, 76, 73, 68, 42, 64, 57, 88, 41, 25, 71, 14, 54, 49, 27, 29, 56, 84, 66, 14, 67, 24, 25, 33, 37, 82, 67, 66, 37, 100, 31, 56, 49, 90, 56, 76, 69, 15, 59, 54, 88, 58, 51, 60, 25, 84, 51, 49, 14, 73, 46, 108, 5, 17, 52, 88, 42, 91, 58, 82, 97, 69, 53, 75, 41, 52, 76, 101, 76, 38, 47, 50, 100, 29, 28, 38, 84, 51, 70, 14, 44, 41, 30, 33, 15, 46, 90, 90, 4, 27, 16, 73, 42, 6, 19, 71, 89, 9, 12, 28, 45, 94, 97, 78, 60, 73, 51, 103, 72, 14, 73, 38, 21, 16, 82, 37, 86, 74, 67, 52, 32, 74, 8, 35, 4, 78, 60, 57, 78, 49, 32, 36, 78, 40, 93, 74, 80, 19, 83, 46, 82, 87, 97, 78, 58, 56, 62, 54, 45, 75, 23, 74, 70, 7, 48, 58, 32, 40, 9, 56, 68, 78, 12, 77, 37, 58, 22, 75, 112, 78, 54, 34, 84, 78, 13, 75, 16, 78, 72, 63, 56, 24, 69, 22, 70, 77, 12, 28, 69, 93, 34, 2, 29, 48, 45, 34, 57, 60, 5, 79, 43, 14, 39, 78, 23, 35, 13, 34, 33, 67, 78, 63, 23, 21, 45, 28, 12, 58, 62, 18, 33, 41, 41, 7, 76, 77, 38, 56, 32, 24, 76, 76, 14, 88, 57, 35, 81, 56, 43, 37, 57, 77, 18, 75, 68, 15, 6, 113, 70, 16, 59, 17, 79, 59, 56, 68, 74, 28
              |51, 75, 17, 42, 39, 64, 29, 55, 30, 55, 44, 39, 36, 39, 31, 54, 24, 81, 45, 31, 50, 9, 25, 27, 18, 48, 51, 51, 40, 41, 28, 42, 20, 45, 37, 13, 60, 59, 15, 49, 49, 9, 21, 15, 15, 7, 30, 42, 77, 40, 58, 57, 24, 62, 22, 77, 43, 36, 60, 29, 68, 67, 54, 38, 43, 28, 31, 33, 24, 22, 66, 42, 63, 31, 12, 33, 6, 52, 26, 71, 28, 32, 62, 79, 69, 73, 55, 23, 13, 59, 74, 77, 25, 57, 66, 44, 61, 37, 26, 44, 43, 69, 56, 35, 35, 60, 30, 67, 21, 54, 62, 24, 60, 14, 44, 68, 56, 64, 40, 33, 29, 65, 18, 26, 31, 39, 66, 31, 29, 29, 65, 45, 59, 15, 25, 59, 53, 62, 59, 70, 50, 34, 26, 41, 57, 66, 46, 14, 13, 56, 43, 47, 86, 38, 71, 77, 31, 62, 39, 20, 64, 34, 64, 23, 69, 57, 59, 20, 23, 18, 44, 69, 46, 47, 31, 30, 42, 46, 75, 42, 31, 70, 21, 29, 40, 23, 55, 22, 26, 29, 28, 20, 57, 58, 26, 61, 22, 17, 38, 34, 61, 41, 60, 76, 69, 16, 31, 50, 45, 44, 62, 35, 39, 47, 43, 19, 50, 33, 45, 81, 33, 34, 41, 72, 27, 69, 34, 48, 70, 33, 50, 59, 46, 60, 34, 23, 57, 28, 78, 6, 57, 83, 26, 63, 22, 51, 48, 54, 62, 71, 28, 13, 78, 72, 82, 65, 30, 44, 73, 65, 6, 66, 53, 30, 42, 54, 42, 21, 74, 15, 38, 41, 46, 33, 57, 35, 39, 27, 24, 6, 74, 27, 75, 32, 74, 60, 13, 71, 67, 62, 47, 50, 2, 55, 18, 17, 45, 50, 45, 48
              |64, 81, 80, 77, 67, 101, 55, 73, 50, 31, 110, 80, 69, 51, 94, 112, 90, 80, 80, 105, 118, 82, 90, 51, 62, 89, 122, 109, 49, 98, 93, 61, 65, 116, 42, 91, 73, 59, 72, 32, 40, 87, 99, 93, 90, 85, 59, 76, 67, 106, 54, 32, 89, 26, 72, 57, 44, 47, 70, 102, 79, 15, 82, 41, 43, 50, 54, 97, 84, 81, 48, 118, 43, 69, 67, 108, 73, 92, 87, 10, 73, 67, 104, 67, 63, 72, 39, 101, 68, 63, 4, 85, 61, 126, 13, 35, 66, 106, 57, 109, 75, 97, 114, 82, 70, 90, 56, 64, 92, 118, 91, 54, 60, 67, 118, 38, 35, 50, 98, 64, 88, 24, 61, 56, 47, 46, 16, 64, 107, 107, 14, 39, 23, 89, 60, 19, 29, 85, 106, 8, 29, 44, 60, 111, 114, 93, 77, 91, 68, 120, 83, 32, 83, 51, 27, 4, 97, 49, 104, 92, 81, 70, 43, 90, 10, 49, 19, 94, 78, 75, 95, 60, 49, 52, 96, 58, 110, 91, 93, 36, 98, 56, 99, 104, 115, 95, 73, 71, 79, 71, 62, 93, 31, 89, 85, 22, 66, 76, 45, 57, 18, 67, 83, 91, 11, 94, 55, 74, 39, 92, 129, 95, 65, 44, 101, 95, 28, 89, 34, 90, 86, 76, 67, 30, 83, 29, 88, 93, 16, 46, 85, 110, 44, 19, 47, 65, 59, 52, 67, 78, 21, 91, 61, 19, 56, 95, 35, 50, 25, 42, 51, 85, 90, 75, 6, 31, 63, 40, 8, 71, 79, 19, 48, 56, 52, 25, 93, 93, 45, 74, 45, 42, 93, 93, 24, 106, 74, 52, 97, 73, 51, 55, 67, 91, 20, 90, 84, 10, 12, 131, 86, 33, 77, 27, 96, 75, 72, 84, 90, 44
              |28, 43, 22, 79, 18, 26, 58, 25, 41, 54, 28, 6, 16, 68, 16, 27, 20, 50, 10, 35, 36, 31, 18, 47, 34, 9, 41, 24, 36, 14, 18, 75, 28, 37, 57, 45, 30, 38, 52, 54, 46, 40, 45, 46, 50, 41, 27, 79, 51, 25, 40, 77, 18, 61, 20, 56, 41, 40, 32, 30, 35, 80, 18, 48, 43, 48, 33, 71, 15, 60, 50, 45, 51, 67, 39, 38, 36, 13, 15, 82, 65, 67, 24, 53, 45, 44, 48, 44, 31, 36, 82, 43, 57, 43, 73, 54, 35, 27, 55, 27, 14, 31, 29, 73, 15, 22, 59, 42, 58, 34, 24, 48, 37, 46, 41, 58, 78, 48, 78, 67, 12, 64, 46, 55, 48, 64, 80, 22, 49, 51, 71, 66, 75, 51, 30, 70, 71, 26, 23, 77, 58, 51, 57, 32, 29, 28, 14, 34, 31, 36, 81, 56, 54, 66, 66, 82, 67, 46, 23, 26, 31, 16, 51, 61, 76, 43, 68, 54, 16, 22, 9, 47, 37, 35, 18, 29, 30, 8, 38, 57, 67, 49, 45, 37, 41, 28, 25, 59, 13, 16, 25, 28, 77, 21, 64, 64, 25, 22, 63, 28, 73, 76, 25, 40, 80, 42, 32, 20, 47, 7, 46, 14, 74, 74, 17, 52, 64, 72, 57, 46, 71, 72, 76, 65, 65, 64, 6, 10, 71, 47, 13, 26, 72, 67, 43, 25, 36, 39, 52, 33, 67, 49, 28, 77, 42, 13, 68, 40, 62, 58, 43, 28, 43, 42, 91, 60, 24, 66, 78, 36, 32, 82, 41, 59, 72, 62, 8, 57, 59, 25, 63, 44, 9, 13, 72, 30, 12, 44, 59, 40, 56, 35, 49, 70, 72, 22, 51, 82, 73, 48, 9, 52, 40, 72, 45, 55, 17, 13, 7, 42
              |33, 53, 53, 71, 37, 70, 43, 42, 26, 1, 81, 50, 39, 46, 65, 82, 63, 54, 50, 79, 89, 58, 62, 33, 38, 58, 93, 79, 19, 69, 65, 57, 39, 88, 29, 69, 43, 29, 56, 11, 9, 65, 76, 71, 70, 63, 31, 70, 42, 77, 25, 38, 61, 6, 44, 34, 15, 20, 40, 75, 50, 30, 51, 21, 14, 32, 27, 83, 56, 66, 22, 91, 16, 60, 45, 82, 50, 61, 59, 30, 62, 58, 73, 43, 36, 44, 9, 78, 44, 33, 28, 57, 48, 97, 19, 16, 36, 77, 44, 80, 44, 66, 84, 72, 40, 59, 44, 36, 74, 89, 61, 37, 31, 48, 90, 16, 41, 23, 86, 55, 59, 9, 42, 43, 29, 39, 31, 34, 84, 85, 18, 35, 30, 70, 33, 21, 30, 55, 75, 23, 13, 28, 47, 83, 84, 63, 46, 66, 44, 91, 76, 16, 58, 44, 15, 27, 82, 21, 75, 65, 51, 40, 17, 74, 22, 19, 18, 75, 50, 48, 64, 34, 18, 21, 67, 30, 82, 61, 64, 22, 83, 31, 76, 79, 88, 69, 42, 57, 50, 42, 34, 67, 36, 59, 71, 9, 39, 49, 37, 28, 24, 63, 52, 62, 28, 71, 27, 43, 11, 62, 100, 66, 60, 44, 71, 75, 22, 77, 19, 62, 75, 67, 63, 16, 70, 13, 58, 63, 16, 25, 54, 79, 42, 14, 23, 38, 29, 28, 42, 54, 18, 63, 34, 29, 35, 64, 33, 19, 6, 21, 29, 59, 62, 47, 37, 9, 34, 35, 23, 42, 55, 34, 17, 44, 49, 13, 63, 75, 25, 48, 37, 15, 63, 64, 28, 78, 43, 31, 79, 52, 29, 30, 41, 78, 18, 59, 66, 30, 19, 102, 55, 7, 55, 30, 74, 59, 41, 53, 60, 14
              |12, 32, 46, 82, 22, 49, 54, 21, 31, 22, 68, 34, 25, 60, 53, 65, 53, 34, 31, 70, 75, 53, 52, 41, 38, 40, 80, 63, 17, 53, 53, 71, 35, 75, 43, 68, 21, 7, 61, 29, 16, 62, 72, 69, 70, 62, 25, 81, 24, 64, 4, 57, 51, 26, 36, 22, 18, 25, 18, 65, 28, 52, 31, 32, 20, 40, 25, 87, 46, 72, 11, 82, 11, 69, 47, 73, 50, 42, 48, 53, 70, 69, 53, 25, 16, 24, 13, 73, 42, 11, 50, 35, 57, 83, 41, 32, 14, 65, 53, 66, 26, 45, 67, 81, 27, 38, 55, 16, 76, 73, 39, 45, 9, 52, 79, 19, 60, 9, 92, 66, 47, 28, 48, 52, 38, 54, 53, 25, 79, 80, 40, 51, 51, 71, 30, 43, 50, 33, 56, 45, 33, 39, 57, 71, 66, 41, 27, 61, 42, 75, 86, 33, 38, 58, 28, 48, 85, 7, 61, 57, 29, 26, 12, 77, 43, 4, 40, 75, 40, 41, 48, 16, 11, 9, 55, 26, 69, 43, 41, 38, 85, 15, 72, 70, 78, 60, 21, 64, 39, 31, 28, 59, 56, 38, 76, 32, 34, 42, 52, 21, 46, 75, 30, 40, 50, 68, 25, 23, 22, 45, 85, 53, 72, 61, 56, 74, 41, 84, 36, 40, 82, 77, 75, 27, 76, 26, 44, 45, 36, 35, 35, 61, 59, 36, 30, 33, 7, 32, 25, 51, 40, 42, 29, 51, 40, 45, 51, 3, 27, 18, 35, 53, 40, 26, 58, 22, 26, 52, 45, 20, 52, 56, 5, 55, 64, 34, 47, 77, 20, 42, 52, 23, 45, 51, 48, 67, 27, 38, 80, 53, 19, 31, 23, 84, 35, 38, 68, 53, 41, 87, 37, 24, 55, 50, 71, 64, 23, 33, 42, 12
              |30, 15, 69, 112, 43, 49, 84, 29, 61, 48, 81, 50, 46, 90, 70, 74, 73, 10, 44, 89, 87, 78, 71, 71, 67, 49, 93, 72, 47, 66, 72, 101, 62, 90, 73, 93, 24, 24, 89, 57, 45, 88, 96, 95, 96, 88, 52, 111, 6, 79, 26, 85, 71, 49, 60, 15, 48, 55, 23, 84, 21, 77, 37, 62, 49, 70, 54, 115, 66, 100, 26, 99, 32, 99, 75, 92, 77, 49, 67, 76, 100, 98, 54, 5, 13, 10, 40, 96, 69, 22, 71, 18, 87, 94, 64, 61, 21, 81, 83, 79, 42, 39, 75, 110, 48, 39, 85, 15, 103, 83, 39, 74, 23, 81, 95, 34, 88, 25, 121, 96, 65, 50, 77, 82, 68, 83, 78, 51, 102, 103, 63, 81, 78, 97, 58, 69, 78, 32, 60, 66, 60, 69, 86, 86, 73, 37, 40, 84, 69, 85, 116, 62, 11, 88, 45, 68, 113, 27, 76, 78, 25, 48, 31, 105, 65, 31, 66, 102, 62, 65, 59, 14, 41, 38, 72, 54, 83, 53, 30, 67, 112, 17, 96, 90, 95, 81, 29, 94, 60, 54, 54, 81, 84, 40, 105, 56, 60, 66, 81, 49, 72, 105, 31, 26, 74, 92, 53, 35, 51, 56, 95, 68, 102, 90, 68, 100, 69, 112, 65, 22, 110, 106, 105, 42, 105, 43, 60, 54, 56, 65, 43, 66, 88, 61, 60, 59, 26, 62, 5, 77, 66, 21, 57, 77, 69, 53, 80, 33, 50, 30, 65, 77, 24, 13, 78, 43, 52, 81, 65, 18, 77, 81, 34, 85, 93, 61, 59, 103, 27, 68, 81, 53, 55, 67, 75, 84, 46, 67, 106, 80, 21, 60, 7, 112, 52, 39, 95, 76, 64, 98, 47, 52, 82, 77, 95, 93, 39, 42, 53, 42
              |62, 83, 69, 59, 62, 98, 39, 71, 39, 30, 101, 74, 63, 34, 85, 105, 80, 84, 76, 94, 109, 70, 80, 38, 51, 84, 112, 102, 43, 91, 83, 43, 55, 105, 27, 77, 72, 59, 57, 25, 36, 73, 85, 79, 75, 71, 51, 58, 72, 97, 55, 15, 79, 28, 62, 63, 39, 38, 70, 91, 80, 2, 79, 31, 37, 37, 46, 80, 75, 65, 51, 106, 46, 52, 54, 96, 60, 87, 78, 7, 57, 50, 100, 72, 66, 74, 39, 88, 57, 63, 14, 87, 45, 116, 14, 25, 66, 96, 42, 100, 70, 95, 107, 65, 64, 87, 40, 66, 76, 110, 89, 40, 61, 52, 107, 43, 18, 53, 81, 47, 79, 28, 47, 41, 35, 30, 1, 56, 93, 93, 15, 23, 6, 74, 50, 9, 12, 84, 101, 14, 21, 31, 44, 101, 107, 91, 72, 78, 57, 112, 66, 22, 87, 34, 34, 18, 81, 51, 95, 81, 80, 63, 46, 74, 14, 49, 12, 79, 69, 65, 88, 64, 45, 49, 86, 50, 101, 85, 93, 23, 82, 60, 86, 92, 103, 84, 71, 55, 70, 64, 54, 81, 13, 87, 68, 22, 56, 65, 29, 51, 6, 50, 81, 92, 6, 80, 47, 71, 33, 86, 120, 87, 48, 27, 93, 80, 16, 72, 22, 92, 69, 59, 50, 38, 67, 35, 80, 88, 24, 34, 81, 104, 27, 16, 37, 56, 59, 41, 72, 65, 12, 93, 52, 2, 43, 90, 18, 49, 27, 48, 39, 73, 92, 77, 18, 35, 55, 24, 17, 72, 67, 4, 47, 40, 35, 18, 86, 77, 52, 63, 29, 35, 87, 85, 8, 95, 68, 40, 82, 59, 57, 45, 71, 75, 30, 87, 69, 7, 15, 121, 81, 28, 63, 10, 82, 59, 68, 80, 85, 41
              |57, 83, 29, 29, 46, 76, 17, 62, 28, 53, 58, 49, 44, 26, 45, 68, 38, 88, 55, 44, 65, 23, 39, 21, 21, 59, 66, 65, 42, 55, 42, 28, 26, 59, 29, 22, 67, 63, 2, 44, 48, 20, 31, 24, 20, 18, 35, 29, 82, 54, 62, 45, 38, 58, 31, 80, 43, 35, 67, 43, 76, 57, 64, 33, 42, 22, 33, 29, 37, 13, 67, 55, 63, 17, 13, 47, 14, 64, 39, 62, 15, 18, 74, 83, 74, 79, 55, 34, 20, 65, 66, 85, 12, 71, 60, 39, 67, 51, 14, 58, 52, 80, 70, 24, 43, 70, 17, 72, 21, 68, 72, 17, 64, 6, 58, 68, 44, 66, 34, 18, 42, 61, 11, 15, 25, 27, 57, 38, 39, 38, 59, 34, 50, 19, 29, 52, 43, 72, 72, 63, 44, 27, 13, 56, 71, 76, 55, 28, 20, 70, 31, 41, 93, 25, 68, 70, 28, 64, 53, 35, 73, 42, 64, 20, 62, 59, 52, 23, 34, 28, 57, 73, 47, 49, 45, 33, 57, 58, 84, 35, 29, 73, 32, 42, 54, 37, 62, 8, 38, 38, 33, 34, 45, 69, 18, 56, 29, 28, 27, 38, 52, 27, 69, 85, 60, 27, 34, 59, 43, 57, 76, 49, 25, 35, 57, 25, 42, 25, 38, 89, 23, 22, 27, 70, 18, 67, 47, 60, 65, 28, 61, 72, 33, 54, 31, 29, 61, 27, 82, 19, 50, 92, 30, 53, 19, 63, 38, 56, 58, 71, 25, 27, 87, 78, 73, 63, 35, 33, 66, 71, 20, 56, 55, 17, 29, 48, 55, 22, 75, 25, 27, 39, 59, 47, 48, 49, 48, 23, 27, 10, 76, 28, 80, 25, 70, 70, 14, 62, 61, 76, 58, 46, 12, 45, 28, 6, 53, 60, 57, 49
              |74, 83, 48, 96, 64, 51, 86, 69, 79, 98, 17, 51, 61, 97, 33, 24, 38, 90, 55, 27, 10, 49, 37, 81, 67, 48, 6, 25, 79, 32, 35, 99, 63, 13, 91, 52, 74, 83, 72, 96, 90, 52, 44, 51, 57, 54, 68, 96, 95, 21, 86, 112, 39, 105, 56, 101, 84, 81, 76, 28, 76, 119, 60, 87, 85, 81, 73, 74, 43, 74, 96, 20, 96, 87, 66, 25, 60, 48, 40, 122, 83, 89, 45, 97, 90, 87, 93, 41, 61, 81, 124, 82, 83, 3, 115, 93, 80, 22, 83, 19, 59, 62, 23, 86, 59, 58, 87, 87, 63, 14, 59, 79, 83, 71, 14, 103, 112, 93, 82, 90, 40, 108, 74, 83, 83, 96, 119, 64, 40, 42, 113, 100, 113, 59, 68, 110, 108, 65, 39, 119, 98, 87, 83, 16, 25, 62, 59, 43, 61, 13, 94, 96, 94, 95, 111, 125, 70, 92, 24, 38, 71, 60, 97, 68, 118, 88, 109, 58, 50, 53, 38, 91, 82, 80, 32, 70, 17, 44, 72, 94, 68, 95, 43, 30, 19, 34, 69, 78, 48, 57, 65, 38, 112, 57, 75, 107, 62, 52, 94, 71, 112, 97, 65, 76, 120, 46, 72, 65, 89, 41, 7, 33, 96, 104, 29, 55, 102, 80, 96, 82, 81, 88, 97, 111, 77, 109, 41, 43, 115, 84, 54, 34, 103, 108, 81, 62, 81, 76, 96, 54, 107, 85, 67, 116, 75, 44, 103, 85, 105, 103, 79, 46, 79, 84, 132, 105, 65, 100, 121, 80, 53, 120, 86, 87, 100, 103, 39, 62, 105, 55, 94, 86, 42, 35, 110, 22, 58, 78, 60, 63, 102, 73, 93, 77, 117, 58, 63, 122, 116, 5, 50, 94, 60, 109, 47, 72, 62, 55, 44, 86
              |46, 66, 63, 69, 50, 84, 43, 56, 33, 14, 93, 62, 51, 43, 77, 94, 73, 66, 63, 88, 101, 66, 73, 36, 46, 71, 104, 92, 31, 81, 75, 54, 48, 98, 29, 76, 56, 42, 59, 15, 22, 71, 83, 78, 76, 70, 42, 68, 54, 89, 38, 29, 71, 10, 54, 45, 26, 29, 54, 85, 64, 17, 65, 25, 25, 36, 37, 85, 67, 69, 33, 101, 28, 59, 51, 91, 57, 74, 70, 17, 63, 57, 86, 54, 48, 57, 23, 85, 52, 47, 15, 70, 49, 108, 5, 19, 49, 88, 45, 91, 57, 80, 97, 72, 53, 73, 44, 49, 78, 100, 74, 40, 44, 53, 101, 25, 33, 35, 88, 55, 70, 10, 47, 44, 33, 37, 19, 46, 91, 92, 4, 30, 20, 75, 42, 11, 23, 69, 88, 9, 13, 30, 48, 94, 96, 76, 59, 75, 52, 103, 75, 16, 70, 42, 17, 15, 85, 34, 86, 75, 64, 52, 28, 77, 8, 32, 8, 80, 60, 58, 77, 46, 31, 34, 78, 40, 93, 73, 77, 22, 86, 42, 84, 88, 98, 79, 56, 59, 62, 54, 45, 76, 28, 72, 73, 4, 49, 59, 35, 40, 13, 60, 66, 75, 15, 78, 38, 56, 21, 74, 112, 78, 58, 39, 84, 81, 17, 79, 19, 75, 76, 67, 60, 20, 72, 17, 70, 76, 8, 30, 68, 92, 38, 3, 30, 48, 43, 35, 54, 62, 9, 76, 44, 18, 41, 77, 27, 33, 9, 30, 35, 68, 75, 60, 23, 17, 45, 31, 11, 55, 63, 22, 31, 44, 45, 9, 75, 80, 34, 57, 35, 24, 75, 76, 18, 89, 56, 36, 84, 58, 39, 38, 53, 80, 14, 73, 71, 17, 6, 113, 69, 16, 61, 21, 81, 62, 55, 66, 73, 27
              |63, 83, 75, 67, 65, 100, 47, 73, 45, 31, 106, 78, 67, 42, 90, 109, 86, 83, 79, 100, 114, 77, 86, 44, 57, 87, 117, 106, 47, 95, 88, 51, 60, 111, 34, 84, 73, 60, 65, 28, 38, 80, 92, 86, 82, 78, 56, 66, 70, 102, 55, 22, 84, 27, 67, 61, 42, 43, 71, 96, 81, 6, 82, 36, 40, 44, 51, 88, 80, 73, 50, 112, 45, 60, 60, 103, 67, 90, 83, 1, 64, 58, 103, 71, 65, 74, 40, 95, 63, 64, 6, 87, 53, 122, 12, 30, 67, 101, 49, 105, 73, 97, 112, 73, 68, 89, 47, 66, 84, 114, 91, 47, 62, 60, 113, 41, 26, 52, 89, 55, 84, 26, 54, 48, 41, 37, 7, 60, 100, 100, 13, 30, 14, 82, 55, 13, 20, 86, 104, 9, 25, 38, 52, 107, 111, 93, 75, 85, 63, 117, 74, 27, 86, 42, 31, 11, 89, 51, 100, 87, 81, 67, 45, 81, 10, 49, 14, 86, 74, 70, 92, 63, 47, 51, 91, 54, 106, 89, 94, 29, 90, 59, 93, 99, 109, 90, 73, 63, 75, 68, 58, 87, 21, 89, 76, 21, 62, 71, 37, 54, 11, 58, 83, 93, 3, 87, 51, 73, 36, 90, 125, 92, 56, 35, 98, 87, 22, 80, 28, 92, 77, 67, 58, 34, 75, 33, 84, 91, 20, 40, 84, 108, 35, 17, 42, 61, 60, 47, 70, 72, 16, 93, 57, 10, 50, 93, 26, 50, 26, 46, 45, 79, 92, 77, 10, 33, 59, 31, 12, 72, 73, 10, 48, 47, 43, 21, 90, 85, 49, 69, 37, 38, 91, 89, 16, 101, 72, 46, 89, 66, 55, 50, 70, 83, 25, 89, 77, 1, 12, 127, 85, 31, 70, 18, 89, 67, 71, 82, 88, 43
              |65, 91, 45, 19, 56, 90, 9, 72, 32, 51, 75, 62, 55, 11, 62, 85, 55, 95, 67, 62, 82, 40, 56, 22, 31, 73, 83, 81, 46, 71, 59, 11, 37, 76, 23, 39, 76, 69, 17, 41, 49, 38, 48, 41, 35, 35, 43, 18, 87, 71, 67, 32, 54, 55, 45, 83, 45, 38, 75, 61, 85, 46, 75, 32, 44, 23, 40, 36, 53, 21, 70, 72, 65, 8, 26, 64, 30, 77, 55, 51, 12, 6, 89, 88, 79, 86, 56, 51, 33, 71, 57, 94, 7, 89, 52, 36, 74, 69, 10, 75, 64, 92, 87, 21, 55, 83, 8, 78, 34, 85, 85, 19, 70, 19, 76, 68, 30, 69, 37, 4, 58, 58, 18, 11, 25, 15, 46, 48, 55, 54, 51, 22, 38, 34, 38, 43, 32, 83, 87, 55, 40, 24, 7, 73, 87, 89, 67, 46, 33, 88, 25, 37, 100, 10, 66, 61, 37, 67, 70, 52, 83, 54, 66, 30, 54, 62, 44, 38, 49, 43, 72, 79, 52, 55, 62, 42, 74, 73, 95, 30, 39, 77, 49, 59, 71, 55, 72, 12, 52, 50, 43, 52, 32, 81, 24, 51, 40, 43, 16, 46, 43, 13, 80, 96, 50, 44, 41, 69, 44, 71, 93, 65, 10, 19, 73, 40, 35, 28, 33, 98, 25, 16, 13, 68, 23, 64, 62, 74, 59, 28, 73, 88, 18, 48, 33, 41, 68, 32, 88, 36, 42, 101, 40, 42, 25, 78, 26, 60, 55, 72, 28, 44, 97, 86, 63, 61, 45, 21, 58, 79, 37, 44, 59, 8, 12, 43, 70, 35, 76, 40, 16, 40, 73, 63, 37, 67, 60, 26, 40, 27, 78, 34, 86, 30, 65, 83, 29, 51, 53, 93, 72, 45, 29, 34, 45, 18, 64, 73, 72, 52
              |24, 4, 61, 108, 36, 37, 80, 20, 57, 49, 70, 40, 38, 87, 60, 62, 63, 6, 34, 79, 76, 70, 62, 67, 61, 38, 82, 61, 43, 55, 62, 98, 56, 79, 71, 85, 15, 21, 83, 57, 45, 80, 87, 86, 89, 80, 47, 107, 12, 68, 25, 86, 61, 52, 53, 22, 46, 51, 14, 74, 9, 79, 26, 60, 48, 67, 49, 108, 57, 94, 29, 89, 34, 95, 69, 82, 70, 37, 58, 79, 95, 94, 43, 13, 14, 5, 40, 87, 62, 18, 75, 9, 83, 83, 67, 60, 15, 70, 79, 68, 33, 27, 63, 105, 40, 28, 82, 13, 96, 72, 27, 70, 19, 76, 84, 39, 88, 27, 114, 92, 55, 53, 72, 78, 65, 81, 80, 44, 92, 94, 66, 79, 79, 90, 52, 70, 78, 20, 48, 70, 61, 67, 82, 75, 62, 25, 31, 76, 62, 73, 111, 61, 11, 85, 50, 73, 105, 28, 65, 69, 14, 40, 34, 98, 69, 31, 67, 94, 54, 57, 48, 16, 38, 35, 62, 48, 72, 42, 19, 66, 105, 21, 87, 81, 85, 71, 20, 88, 51, 46, 48, 71, 84, 28, 98, 58, 53, 58, 79, 43, 73, 102, 20, 16, 77, 83, 48, 25, 50, 45, 83, 58, 99, 89, 57, 92, 69, 106, 64, 13, 105, 101, 102, 47, 99, 48, 50, 43, 60, 62, 32, 54, 87, 63, 56, 52, 22, 57, 13, 69, 68, 14, 51, 79, 65, 41, 79, 31, 53, 35, 61, 68, 14, 3, 83, 46, 46, 80, 69, 10, 70, 83, 33, 82, 91, 62, 48, 96, 33, 60, 79, 51, 44, 57, 76, 74, 37, 63, 98, 74, 27, 55, 11, 106, 57, 28, 88, 79, 67, 86, 36, 52, 75, 78, 86, 87, 30, 31, 42, 40
              |14, 14, 48, 97, 23, 28, 70, 7, 48, 46, 57, 26, 25, 78, 47, 50, 49, 20, 20, 65, 64, 57, 48, 57, 49, 25, 69, 49, 35, 42, 48, 88, 44, 66, 62, 72, 3, 17, 72, 51, 39, 67, 74, 73, 75, 67, 36, 96, 22, 55, 21, 79, 47, 50, 40, 29, 38, 43, 5, 60, 6, 75, 13, 51, 40, 57, 39, 95, 43, 82, 30, 75, 33, 84, 57, 68, 57, 25, 44, 76, 84, 84, 33, 24, 18, 14, 37, 74, 50, 13, 73, 16, 72, 70, 65, 53, 10, 57, 68, 55, 19, 21, 52, 93, 27, 17, 72, 15, 83, 60, 18, 60, 15, 64, 71, 39, 82, 27, 102, 82, 41, 52, 61, 68, 56, 73, 76, 32, 79, 80, 63, 72, 74, 77, 41, 66, 72, 11, 38, 68, 55, 58, 72, 62, 50, 18, 17, 62, 50, 61, 100, 55, 25, 76, 51, 72, 93, 27, 52, 55, 5, 28, 34, 85, 67, 27, 63, 81, 40, 44, 35, 20, 31, 27, 49, 37, 59, 29, 18, 59, 92, 24, 73, 67, 71, 58, 7, 77, 38, 33, 36, 58, 78, 17, 86, 55, 41, 45, 71, 33, 69, 91, 9, 17, 74, 70, 38, 12, 43, 32, 72, 44, 89, 81, 44, 79, 63, 94, 57, 20, 93, 90, 91, 48, 87, 48, 37, 30, 59, 53, 19, 43, 79, 60, 47, 40, 16, 47, 23, 56, 63, 22, 39, 74, 54, 29, 72, 26, 51, 37, 51, 55, 18, 11, 82, 45, 34, 72, 68, 7, 57, 79, 28, 72, 82, 57, 35, 83, 37, 47, 71, 44, 31, 43, 71, 60, 23, 53, 85, 62, 32, 44, 20, 93, 58, 17, 75, 76, 65, 74, 23, 47, 62, 72, 73, 75, 17, 18, 29, 34
              |29, 36, 64, 94, 40, 63, 65, 35, 45, 25, 85, 51, 43, 69, 71, 82, 71, 34, 48, 88, 93, 71, 70, 54, 55, 56, 98, 80, 32, 71, 72, 81, 52, 93, 52, 85, 33, 20, 75, 35, 26, 80, 90, 87, 87, 79, 42, 93, 21, 82, 17, 61, 69, 24, 54, 11, 30, 38, 30, 83, 36, 51, 46, 42, 31, 53, 41, 102, 64, 87, 7, 100, 10, 82, 62, 91, 66, 57, 66, 50, 84, 81, 67, 21, 18, 27, 19, 91, 59, 23, 45, 40, 70, 100, 38, 40, 25, 83, 66, 84, 43, 56, 84, 94, 45, 52, 67, 20, 92, 90, 52, 58, 21, 67, 97, 9, 65, 9, 107, 78, 65, 24, 62, 65, 50, 63, 52, 43, 97, 98, 37, 59, 53, 87, 47, 44, 54, 45, 71, 40, 38, 50, 69, 89, 83, 53, 44, 79, 59, 92, 99, 40, 37, 68, 19, 42, 101, 11, 79, 75, 39, 45, 9, 93, 40, 16, 41, 92, 58, 59, 65, 16, 26, 26, 73, 42, 87, 60, 50, 46, 101, 11, 90, 89, 96, 79, 35, 78, 58, 49, 45, 77, 60, 52, 91, 30, 51, 60, 61, 38, 47, 86, 43, 47, 48, 85, 41, 39, 31, 62, 102, 71, 83, 68, 73, 91, 46, 98, 43, 45, 96, 89, 86, 16, 91, 17, 62, 61, 30, 47, 50, 77, 67, 36, 42, 50, 21, 46, 21, 68, 42, 45, 46, 52, 54, 61, 57, 19, 25, 4, 49, 71, 46, 30, 52, 17, 44, 59, 39, 29, 69, 56, 19, 67, 73, 37, 64, 93, 2, 60, 61, 34, 62, 69, 51, 85, 45, 51, 96, 69, 5, 46, 21, 99, 26, 52, 84, 50, 38, 105, 53, 30, 72, 53, 88, 79, 40, 49, 59, 24
              |46, 66, 8, 60, 32, 48, 45, 46, 38, 60, 27, 26, 29, 56, 13, 36, 6, 72, 33, 18, 34, 9, 7, 39, 25, 33, 36, 33, 42, 24, 10, 60, 22, 29, 50, 21, 51, 54, 33, 56, 52, 17, 21, 22, 26, 18, 30, 60, 71, 22, 55, 70, 7, 67, 17, 73, 46, 41, 52, 14, 58, 78, 42, 46, 47, 40, 34, 47, 9, 39, 64, 30, 63, 49, 25, 21, 19, 37, 9, 81, 46, 50, 45, 73, 64, 65, 57, 21, 20, 54, 84, 67, 42, 41, 75, 53, 54, 20, 42, 26, 33, 55, 38, 52, 27, 46, 46, 61, 34, 36, 48, 38, 54, 30, 30, 69, 70, 62, 55, 50, 13, 70, 33, 42, 42, 54, 78, 28, 27, 28, 73, 59, 72, 28, 28, 70, 66, 50, 42, 79, 58, 45, 43, 25, 39, 52, 35, 10, 20, 39, 60, 56, 77, 54, 75, 85, 44, 60, 21, 4, 54, 27, 64, 38, 78, 55, 68, 31, 13, 13, 27, 65, 46, 45, 13, 31, 25, 31, 62, 53, 43, 66, 21, 18, 27, 8, 46, 40, 15, 22, 27, 6, 70, 45, 42, 68, 22, 12, 53, 34, 72, 59, 49, 64, 79, 18, 34, 41, 50, 28, 45, 17, 57, 63, 25, 28, 61, 49, 55, 69, 49, 52, 59, 75, 44, 72, 18, 32, 76, 42, 37, 41, 61, 69, 41, 23, 52, 36, 72, 13, 67, 72, 27, 74, 33, 35, 62, 52, 67, 71, 37, 5, 67, 63, 92, 68, 28, 58, 81, 57, 12, 79, 52, 46, 59, 62, 26, 34, 73, 14, 53, 47, 30, 16, 69, 19, 29, 37, 35, 22, 72, 32, 69, 47, 79, 46, 29, 81, 76, 46, 33, 55, 20, 67, 21, 35, 36, 37, 30, 50
              |23, 31, 60, 93, 35, 57, 65, 29, 43, 26, 80, 46, 38, 69, 66, 77, 66, 30, 43, 83, 88, 67, 65, 52, 52, 51, 93, 74, 30, 66, 67, 81, 49, 88, 52, 82, 27, 14, 73, 35, 25, 76, 86, 83, 84, 76, 39, 92, 17, 77, 12, 63, 64, 27, 50, 9, 29, 36, 24, 79, 31, 54, 40, 42, 30, 52, 38, 100, 59, 85, 4, 95, 9, 81, 60, 87, 63, 52, 62, 53, 82, 80, 62, 17, 13, 22, 18, 87, 56, 17, 49, 35, 69, 95, 41, 40, 19, 78, 64, 78, 38, 50, 78, 93, 40, 46, 66, 15, 89, 85, 47, 56, 15, 65, 92, 12, 66, 5, 105, 77, 60, 27, 60, 64, 49, 63, 55, 39, 93, 94, 40, 59, 55, 84, 44, 46, 56, 40, 66, 44, 39, 50, 68, 84, 77, 47, 38, 75, 56, 87, 98, 40, 33, 68, 23, 46, 98, 7, 74, 71, 34, 40, 9, 90, 43, 13, 43, 89, 54, 55, 60, 10, 24, 23, 68, 39, 82, 54, 44, 46, 99, 6, 86, 84, 91, 74, 29, 77, 53, 45, 42, 73, 62, 46, 89, 33, 48, 56, 61, 35, 49, 86, 37, 42, 51, 82, 38, 33, 30, 56, 97, 66, 83, 69, 68, 88, 47, 96, 44, 40, 94, 88, 86, 21, 89, 21, 57, 56, 34, 46, 45, 71, 67, 38, 41, 47, 16, 44, 17, 65, 44, 40, 43, 54, 52, 56, 58, 16, 28, 9, 47, 67, 41, 25, 56, 20, 40, 60, 43, 23, 66, 59, 16, 66, 73, 38, 59, 90, 8, 56, 61, 33, 56, 64, 53, 81, 40, 49, 93, 66, 5, 43, 17, 97, 31, 46, 81, 53, 41, 99, 48, 31, 69, 55, 85, 77, 35, 44, 54, 22
              |65, 85, 25, 55, 51, 65, 49, 65, 51, 75, 33, 46, 48, 59, 28, 47, 23, 91, 52, 15, 37, 18, 24, 48, 38, 51, 36, 44, 58, 38, 25, 60, 37, 30, 59, 11, 71, 73, 32, 69, 68, 13, 3, 9, 16, 15, 47, 55, 90, 30, 73, 77, 25, 81, 35, 92, 62, 56, 72, 17, 77, 88, 61, 58, 62, 49, 49, 34, 29, 32, 82, 23, 80, 47, 33, 16, 26, 55, 28, 92, 42, 48, 61, 92, 83, 84, 73, 2, 32, 73, 95, 86, 45, 42, 87, 65, 73, 27, 46, 34, 53, 73, 48, 45, 46, 64, 50, 80, 22, 43, 66, 45, 73, 34, 27, 86, 76, 80, 42, 50, 31, 85, 39, 47, 52, 59, 87, 46, 8, 9, 86, 65, 80, 17, 43, 81, 74, 69, 57, 91, 70, 55, 45, 28, 50, 71, 55, 10, 32, 45, 52, 68, 96, 57, 91, 98, 30, 78, 31, 17, 73, 46, 81, 27, 90, 73, 80, 17, 32, 30, 44, 84, 63, 63, 27, 47, 31, 48, 80, 64, 28, 85, 2, 12, 23, 16, 65, 38, 34, 41, 44, 14, 77, 63, 33, 81, 38, 29, 59, 51, 82, 56, 68, 83, 90, 6, 49, 60, 65, 45, 47, 33, 55, 67, 39, 14, 71, 39, 66, 88, 40, 47, 56, 91, 36, 88, 37, 49, 90, 54, 56, 54, 66, 81, 54, 39, 71, 48, 91, 22, 78, 91, 43, 84, 43, 52, 69, 70, 82, 88, 49, 18, 86, 83, 103, 84, 45, 65, 94, 76, 21, 87, 70, 50, 61, 75, 42, 21, 91, 29, 59, 61, 47, 32, 78, 23, 49, 47, 20, 27, 90, 46, 88, 36, 94, 64, 22, 92, 88, 46, 52, 70, 23, 76, 5, 32, 55, 56, 48, 66
              |74, 96, 35, 47, 61, 78, 48, 76, 55, 80, 46, 57, 58, 56, 41, 60, 35, 102, 64, 28, 49, 27, 37, 51, 43, 64, 47, 57, 65, 51, 38, 55, 44, 42, 60, 12, 81, 82, 30, 73, 74, 17, 10, 10, 12, 18, 55, 47, 100, 43, 82, 76, 37, 86, 44, 101, 68, 61, 82, 30, 89, 89, 73, 62, 68, 52, 56, 22, 40, 26, 90, 32, 87, 41, 36, 28, 31, 67, 40, 93, 36, 43, 74, 102, 93, 95, 80, 12, 38, 83, 97, 97, 43, 53, 90, 68, 84, 39, 45, 47, 64, 86, 61, 36, 56, 77, 48, 90, 13, 55, 79, 47, 83, 35, 38, 93, 75, 88, 30, 45, 43, 90, 41, 46, 55, 58, 88, 55, 12, 10, 89, 65, 81, 13, 50, 83, 75, 81, 70, 94, 74, 57, 44, 41, 63, 83, 66, 21, 38, 57, 43, 71, 107, 55, 96, 100, 18, 86, 44, 29, 84, 56, 88, 18, 93, 81, 83, 8, 42, 39, 57, 93, 70, 71, 40, 54, 43, 61, 93, 66, 16, 94, 11, 24, 33, 28, 76, 34, 45, 51, 52, 27, 77, 75, 25, 85, 46, 38, 58, 59, 84, 50, 79, 95, 92, 13, 56, 71, 70, 58, 58, 45, 50, 65, 52, 7, 73, 29, 68, 100, 31, 39, 50, 97, 27, 94, 49, 62, 95, 57, 68, 67, 64, 84, 58, 47, 80, 53, 101, 28, 81, 103, 50, 85, 47, 65, 69, 78, 87, 95, 53, 28, 98, 93, 105, 90, 53, 64, 97, 87, 28, 88, 78, 48, 58, 78, 55, 12, 99, 37, 58, 66, 60, 45, 79, 35, 59, 51, 8, 29, 99, 52, 98, 25, 99, 77, 17, 93, 91, 57, 64, 74, 26, 76, 10, 29, 66, 68, 60, 73
              |61, 82, 22, 53, 48, 63, 46, 62, 46, 71, 33, 43, 45, 56, 26, 46, 21, 88, 49, 16, 38, 14, 22, 44, 34, 49, 38, 44, 54, 37, 23, 57, 33, 31, 55, 9, 67, 69, 29, 65, 64, 9, 5, 8, 14, 11, 43, 53, 86, 30, 70, 74, 22, 77, 31, 88, 58, 51, 68, 17, 74, 84, 58, 54, 58, 45, 45, 34, 26, 30, 78, 26, 76, 44, 29, 18, 22, 52, 25, 88, 40, 46, 59, 88, 79, 81, 69, 6, 28, 69, 91, 83, 41, 44, 83, 61, 70, 26, 42, 34, 49, 71, 48, 43, 43, 62, 46, 77, 21, 43, 64, 42, 70, 30, 29, 82, 73, 76, 42, 47, 28, 81, 36, 43, 48, 56, 83, 42, 12, 13, 82, 62, 77, 16, 39, 77, 71, 66, 55, 87, 66, 51, 42, 29, 49, 68, 51, 6, 28, 45, 51, 64, 93, 54, 86, 94, 30, 74, 31, 14, 70, 42, 77, 26, 86, 69, 76, 17, 28, 26, 42, 80, 59, 59, 25, 43, 31, 46, 78, 60, 29, 81, 5, 13, 25, 14, 62, 35, 30, 37, 40, 12, 74, 60, 32, 77, 34, 25, 55, 47, 78, 54, 65, 80, 86, 3, 45, 57, 61, 43, 49, 31, 53, 64, 38, 14, 67, 38, 62, 85, 39, 45, 54, 87, 34, 84, 34, 47, 86, 50, 53, 53, 62, 77, 50, 35, 67, 44, 87, 18, 74, 89, 39, 80, 39, 50, 65, 66, 78, 84, 45, 14, 83, 79, 99, 80, 41, 61, 90, 73, 16, 84, 66, 46, 58, 71, 40, 21, 87, 25, 55, 57, 45, 30, 74, 23, 45, 43, 20, 23, 86, 42, 84, 36, 90, 62, 19, 88, 84, 48, 49, 66, 19, 72, 5, 30, 52, 53, 45, 62
              |45, 70, 19, 41, 33, 64, 21, 50, 19, 44, 51, 37, 32, 31, 36, 59, 30, 75, 43, 40, 58, 17, 30, 16, 8, 48, 60, 56, 30, 45, 34, 37, 13, 54, 26, 25, 54, 51, 15, 37, 38, 20, 32, 27, 25, 19, 22, 41, 69, 47, 50, 46, 29, 50, 19, 68, 32, 25, 54, 38, 63, 55, 51, 26, 32, 17, 22, 40, 27, 26, 56, 52, 53, 28, 0, 43, 6, 52, 29, 59, 27, 29, 63, 71, 62, 66, 45, 34, 7, 52, 63, 72, 19, 65, 55, 33, 54, 45, 17, 50, 39, 68, 61, 36, 31, 58, 22, 60, 30, 61, 60, 13, 52, 8, 54, 58, 46, 55, 46, 28, 32, 53, 9, 18, 19, 30, 55, 25, 40, 40, 53, 34, 48, 25, 17, 48, 42, 59, 61, 59, 38, 22, 19, 50, 62, 64, 43, 25, 7, 63, 44, 35, 80, 29, 60, 65, 39, 53, 46, 28, 60, 30, 54, 30, 57, 47, 47, 30, 23, 17, 46, 61, 36, 38, 37, 21, 50, 47, 71, 31, 39, 61, 33, 39, 50, 32, 50, 21, 26, 25, 21, 29, 46, 56, 30, 49, 16, 17, 28, 26, 49, 38, 57, 73, 57, 27, 22, 46, 34, 45, 70, 40, 35, 38, 48, 30, 39, 38, 33, 76, 36, 34, 38, 61, 30, 58, 36, 49, 58, 21, 48, 62, 37, 49, 22, 16, 49, 17, 70, 12, 46, 79, 18, 51, 11, 52, 38, 44, 50, 60, 16, 20, 74, 66, 70, 54, 23, 34, 61, 59, 13, 55, 44, 22, 35, 42, 44, 31, 64, 14, 28, 30, 47, 37, 46, 44, 35, 15, 34, 7, 65, 16, 68, 37, 63, 58, 22, 59, 56, 70, 46, 38, 10, 44, 30, 18, 40, 48, 46, 38
              |37, 62, 37, 50, 32, 68, 22, 45, 6, 21, 68, 42, 32, 28, 52, 72, 47, 65, 45, 62, 76, 39, 47, 10, 19, 53, 79, 69, 16, 58, 50, 39, 22, 73, 11, 48, 48, 39, 33, 13, 18, 44, 56, 50, 48, 42, 20, 50, 56, 64, 36, 31, 46, 27, 29, 52, 14, 8, 47, 58, 57, 34, 51, 2, 13, 9, 14, 60, 42, 44, 38, 74, 34, 38, 24, 65, 30, 57, 45, 37, 40, 37, 69, 57, 49, 56, 25, 58, 25, 42, 40, 66, 26, 84, 31, 9, 44, 63, 22, 67, 40, 68, 75, 51, 33, 59, 23, 48, 52, 77, 61, 15, 40, 26, 75, 37, 32, 38, 64, 35, 46, 30, 20, 21, 7, 22, 34, 25, 64, 64, 30, 21, 29, 48, 17, 25, 24, 57, 70, 35, 14, 7, 26, 69, 75, 64, 43, 47, 25, 79, 55, 12, 70, 26, 37, 42, 60, 36, 62, 48, 56, 32, 35, 51, 34, 31, 24, 53, 36, 32, 56, 48, 21, 25, 53, 18, 68, 54, 68, 10, 60, 46, 56, 61, 71, 52, 45, 35, 38, 31, 22, 49, 30, 58, 49, 25, 24, 33, 20, 20, 28, 43, 54, 68, 35, 51, 15, 43, 13, 54, 87, 54, 40, 30, 61, 53, 17, 55, 11, 70, 53, 46, 43, 39, 48, 36, 47, 56, 35, 3, 51, 72, 28, 25, 4, 23, 38, 8, 57, 34, 23, 72, 19, 31, 13, 59, 22, 29, 27, 41, 7, 41, 69, 57, 48, 32, 23, 21, 38, 50, 36, 36, 28, 23, 32, 19, 54, 53, 45, 30, 20, 9, 56, 52, 26, 63, 37, 9, 57, 31, 47, 12, 55, 56, 39, 59, 44, 37, 32, 89, 51, 15, 34, 25, 53, 37, 39, 50, 53, 21
              |43, 66, 53, 58, 43, 79, 32, 52, 22, 14, 83, 55, 44, 32, 67, 87, 63, 67, 57, 78, 91, 55, 63, 25, 35, 65, 95, 83, 24, 72, 66, 44, 38, 89, 17, 64, 54, 41, 47, 6, 18, 60, 72, 66, 64, 58, 33, 57, 56, 79, 38, 23, 62, 16, 45, 49, 20, 20, 52, 74, 62, 20, 60, 14, 18, 24, 28, 73, 57, 57, 36, 90, 30, 48, 40, 81, 46, 68, 60, 22, 51, 46, 81, 57, 49, 58, 22, 74, 41, 45, 24, 70, 37, 99, 15, 7, 48, 79, 33, 82, 51, 77, 89, 61, 45, 68, 33, 49, 66, 92, 70, 28, 43, 41, 90, 30, 26, 37, 76, 43, 61, 18, 35, 32, 21, 26, 20, 38, 80, 80, 14, 21, 17, 63, 33, 10, 16, 65, 82, 19, 2, 18, 36, 84, 89, 73, 53, 64, 41, 94, 64, 4, 71, 31, 26, 25, 73, 35, 77, 64, 62, 44, 31, 65, 18, 32, 8, 68, 51, 48, 69, 48, 26, 30, 69, 31, 83, 67, 75, 10, 74, 45, 72, 77, 87, 68, 52, 47, 52, 45, 36, 65, 22, 68, 61, 11, 39, 48, 24, 32, 13, 50, 62, 74, 20, 67, 29, 52, 14, 67, 103, 69, 47, 30, 75, 69, 7, 67, 7, 75, 64, 55, 50, 28, 60, 25, 62, 69, 20, 18, 62, 85, 28, 9, 19, 38, 41, 24, 56, 51, 7, 76, 34, 17, 29, 71, 18, 31, 15, 35, 23, 57, 74, 60, 32, 23, 37, 21, 22, 54, 52, 23, 29, 33, 35, 3, 68, 67, 39, 46, 24, 16, 68, 67, 14, 79, 49, 25, 72, 46, 43, 28, 55, 68, 25, 68, 59, 22, 16, 104, 62, 10, 50, 16, 69, 50, 49, 61, 66, 23
              |84, 110, 57, 6, 74, 104, 31, 90, 52, 73, 82, 77, 72, 30, 71, 94, 64, 115, 83, 65, 87, 49, 65, 43, 48, 87, 87, 91, 67, 82, 68, 21, 54, 80, 45, 40, 95, 89, 26, 63, 71, 42, 48, 41, 35, 40, 62, 7, 108, 78, 87, 50, 64, 77, 59, 104, 66, 59, 94, 66, 104, 66, 92, 54, 65, 44, 59, 23, 65, 19, 91, 73, 87, 14, 41, 67, 42, 92, 66, 71, 14, 16, 102, 109, 100, 105, 77, 51, 48, 91, 77, 113, 26, 93, 74, 58, 93, 75, 31, 82, 80, 108, 95, 6, 71, 98, 30, 98, 29, 92, 101, 39, 91, 33, 78, 90, 47, 91, 19, 18, 69, 79, 36, 32, 46, 36, 65, 65, 53, 52, 73, 43, 58, 33, 56, 64, 52, 100, 99, 76, 61, 46, 27, 78, 97, 105, 83, 51, 48, 94, 3, 59, 120, 31, 87, 82, 26, 88, 78, 59, 101, 70, 87, 24, 75, 83, 66, 34, 62, 56, 84, 99, 72, 75, 71, 60, 80, 86, 112, 52, 28, 98, 49, 62, 73, 61, 90, 20, 66, 66, 61, 58, 51, 97, 17, 73, 57, 56, 38, 65, 64, 14, 97, 113, 70, 46, 60, 87, 65, 84, 98, 75, 16, 37, 83, 37, 56, 14, 55, 117, 11, 7, 14, 90, 15, 86, 74, 88, 81, 50, 89, 99, 37, 70, 54, 57, 88, 52, 108, 46, 64, 119, 58, 62, 44, 91, 47, 81, 77, 93, 48, 53, 115, 106, 82, 83, 63, 42, 79, 99, 47, 63, 80, 30, 29, 65, 82, 30, 97, 53, 38, 62, 86, 74, 57, 72, 76, 46, 34, 38, 100, 54, 106, 17, 87, 98, 30, 71, 75, 97, 86, 67, 39, 54, 46, 23, 81, 89, 85, 73
              |19, 44, 37, 68, 19, 54, 40, 28, 17, 17, 64, 32, 21, 46, 48, 64, 46, 47, 33, 62, 72, 43, 45, 27, 26, 41, 76, 62, 3, 51, 47, 57, 24, 70, 30, 56, 30, 20, 47, 18, 8, 51, 62, 58, 58, 50, 14, 67, 38, 60, 18, 46, 44, 23, 27, 35, 5, 11, 29, 58, 39, 44, 36, 18, 7, 26, 12, 74, 39, 58, 22, 75, 19, 55, 34, 65, 37, 44, 42, 46, 56, 54, 56, 40, 30, 37, 12, 63, 30, 23, 45, 47, 43, 79, 36, 20, 26, 60, 39, 62, 27, 52, 67, 67, 23, 44, 41, 29, 63, 71, 46, 30, 22, 39, 73, 25, 48, 21, 79, 52, 41, 26, 34, 38, 24, 40, 45, 17, 69, 70, 34, 39, 41, 58, 18, 34, 39, 41, 58, 40, 22, 26, 42, 66, 66, 48, 29, 51, 30, 73, 72, 22, 52, 44, 30, 45, 72, 19, 57, 49, 38, 22, 20, 64, 38, 14, 32, 63, 33, 32, 47, 30, 3, 6, 50, 14, 64, 43, 51, 25, 72, 29, 62, 62, 71, 52, 28, 50, 33, 25, 17, 51, 45, 43, 63, 26, 23, 33, 38, 11, 37, 61, 38, 51, 43, 57, 12, 27, 10, 44, 82, 49, 58, 48, 54, 63, 30, 70, 24, 52, 68, 62, 61, 30, 63, 28, 40, 45, 34, 21, 38, 62, 46, 30, 16, 22, 19, 18, 39, 40, 31, 54, 18, 42, 26, 47, 39, 11, 24, 27, 21, 44, 51, 38, 54, 24, 17, 39, 41, 32, 41, 47, 10, 41, 50, 25, 45, 64, 31, 32, 38, 10, 45, 47, 38, 61, 26, 23, 67, 40, 31, 17, 37, 70, 36, 44, 55, 46, 36, 84, 38, 15, 43, 39, 60, 51, 25, 36, 42, 5
              |49, 70, 60, 62, 50, 85, 37, 58, 30, 17, 91, 62, 51, 36, 75, 94, 71, 71, 64, 85, 99, 63, 71, 32, 43, 72, 103, 91, 31, 80, 74, 47, 45, 96, 23, 71, 59, 46, 54, 13, 24, 67, 79, 73, 71, 66, 41, 61, 59, 87, 42, 22, 69, 16, 52, 51, 26, 28, 57, 82, 67, 13, 67, 22, 25, 31, 35, 79, 65, 63, 38, 98, 33, 53, 47, 88, 53, 75, 68, 15, 56, 51, 87, 59, 53, 62, 26, 81, 49, 50, 16, 74, 43, 107, 8, 15, 53, 86, 39, 90, 58, 83, 96, 66, 52, 75, 38, 53, 73, 99, 76, 35, 48, 48, 98, 31, 25, 40, 81, 48, 69, 16, 41, 38, 28, 30, 14, 45, 87, 87, 7, 23, 13, 70, 40, 4, 16, 71, 89, 12, 10, 25, 42, 92, 96, 79, 60, 71, 49, 102, 68, 12, 75, 35, 24, 18, 79, 38, 85, 72, 67, 52, 33, 71, 10, 36, 1, 75, 59, 55, 77, 51, 32, 36, 76, 39, 91, 74, 80, 16, 80, 48, 80, 85, 95, 76, 58, 53, 60, 53, 43, 73, 21, 74, 67, 9, 47, 56, 28, 39, 7, 53, 68, 79, 13, 74, 36, 58, 21, 74, 110, 77, 51, 31, 83, 76, 10, 72, 14, 79, 69, 60, 53, 27, 66, 24, 69, 76, 15, 26, 69, 93, 30, 4, 27, 46, 46, 32, 59, 58, 2, 80, 42, 12, 36, 78, 20, 36, 15, 36, 31, 65, 79, 64, 24, 23, 44, 24, 14, 59, 60, 17, 34, 38, 38, 6, 75, 74, 40, 54, 28, 23, 76, 74, 11, 87, 56, 32, 78, 53, 45, 35, 58, 74, 21, 75, 66, 15, 9, 112, 69, 16, 57, 14, 77, 56, 56, 67, 73, 29
              |38, 50, 24, 82, 28, 25, 63, 33, 48, 64, 19, 15, 25, 74, 11, 18, 17, 57, 18, 29, 27, 32, 16, 54, 40, 13, 32, 15, 45, 4, 14, 80, 34, 28, 64, 44, 38, 47, 55, 63, 55, 40, 42, 45, 49, 42, 36, 82, 59, 17, 49, 85, 17, 70, 26, 65, 50, 49, 40, 24, 42, 88, 25, 56, 52, 54, 41, 70, 16, 62, 60, 38, 60, 70, 43, 31, 39, 16, 15, 91, 68, 71, 22, 61, 54, 52, 58, 41, 36, 45, 91, 49, 62, 34, 82, 62, 44, 19, 60, 17, 23, 34, 20, 75, 24, 26, 64, 51, 57, 24, 28, 54, 46, 50, 33, 67, 85, 57, 78, 71, 11, 73, 51, 60, 55, 71, 88, 31, 45, 47, 80, 73, 83, 51, 37, 79, 79, 32, 19, 86, 66, 59, 62, 24, 20, 32, 23, 32, 36, 26, 83, 65, 61, 72, 76, 91, 67, 55, 14, 24, 37, 25, 61, 61, 85, 52, 77, 54, 20, 26, 4, 55, 47, 44, 13, 37, 21, 9, 42, 64, 66, 58, 42, 31, 34, 24, 33, 62, 17, 23, 33, 26, 84, 25, 65, 73, 32, 26, 69, 37, 81, 80, 31, 45, 88, 40, 40, 29, 55, 6, 36, 7, 78, 80, 7, 51, 72, 73, 65, 51, 72, 75, 80, 75, 67, 73, 7, 9, 81, 54, 19, 19, 78, 75, 51, 32, 45, 47, 60, 35, 76, 54, 35, 85, 48, 13, 76, 49, 71, 67, 50, 28, 48, 49, 100, 69, 32, 73, 87, 44, 34, 90, 50, 64, 78, 70, 3, 57, 69, 29, 69, 53, 8, 8, 80, 23, 22, 50, 57, 43, 65, 43, 57, 71, 82, 26, 52, 91, 82, 38, 15, 61, 42, 80, 43, 57, 26, 20, 9, 51
              |52, 76, 20, 39, 40, 67, 25, 56, 28, 53, 48, 41, 37, 35, 35, 58, 28, 82, 47, 35, 55, 13, 29, 24, 16, 51, 56, 55, 39, 45, 32, 38, 20, 49, 34, 16, 61, 59, 11, 46, 47, 12, 24, 18, 16, 10, 30, 38, 77, 44, 58, 52, 28, 59, 23, 76, 41, 34, 61, 34, 69, 63, 56, 35, 41, 25, 30, 32, 28, 19, 65, 46, 61, 27, 9, 37, 6, 55, 29, 67, 24, 28, 65, 79, 69, 73, 53, 27, 13, 60, 71, 78, 21, 61, 63, 41, 61, 41, 21, 48, 45, 72, 60, 32, 36, 62, 25, 67, 21, 58, 64, 21, 60, 9, 49, 67, 52, 63, 39, 28, 33, 62, 14, 22, 28, 35, 62, 32, 32, 32, 62, 40, 55, 16, 25, 56, 49, 64, 62, 67, 47, 30, 21, 46, 61, 68, 48, 19, 13, 60, 40, 44, 87, 33, 69, 73, 30, 61, 43, 25, 66, 35, 62, 22, 66, 56, 56, 21, 25, 20, 47, 69, 45, 46, 35, 29, 47, 49, 76, 39, 30, 69, 25, 33, 45, 28, 56, 18, 29, 30, 28, 24, 52, 61, 23, 58, 22, 19, 34, 34, 57, 37, 62, 78, 65, 19, 30, 52, 43, 47, 66, 39, 35, 43, 47, 21, 47, 31, 41, 82, 30, 31, 37, 70, 24, 67, 37, 51, 67, 30, 52, 62, 41, 57, 31, 23, 57, 26, 78, 9, 54, 85, 25, 59, 19, 54, 44, 53, 59, 69, 25, 17, 80, 73, 78, 63, 30, 40, 70, 66, 10, 62, 52, 25, 38, 51, 45, 22, 73, 17, 34, 39, 49, 37, 53, 40, 40, 24, 25, 2, 73, 25, 75, 30, 72, 62, 13, 67, 64, 66, 50, 47, 2, 51, 21, 14, 46, 52, 48, 47
              |30, 53, 11, 60, 17, 46, 37, 33, 22, 42, 40, 19, 14, 47, 24, 45, 20, 59, 24, 36, 48, 18, 20, 27, 13, 29, 52, 42, 23, 30, 23, 54, 7, 46, 36, 33, 38, 37, 33, 38, 34, 28, 37, 35, 36, 28, 12, 59, 55, 36, 37, 57, 19, 48, 1, 56, 28, 23, 38, 32, 46, 62, 33, 30, 29, 27, 16, 55, 14, 43, 46, 49, 44, 47, 18, 40, 18, 34, 17, 65, 46, 47, 45, 57, 48, 51, 38, 38, 11, 38, 67, 55, 37, 56, 57, 36, 39, 35, 34, 39, 21, 49, 47, 54, 13, 39, 38, 45, 43, 49, 42, 27, 38, 26, 48, 51, 58, 44, 62, 46, 18, 51, 25, 34, 28, 44, 62, 10, 44, 45, 56, 46, 57, 37, 11, 53, 52, 41, 44, 62, 41, 31, 36, 41, 47, 46, 24, 26, 11, 51, 62, 39, 64, 45, 56, 68, 53, 42, 34, 23, 42, 12, 45, 45, 60, 37, 52, 42, 8, 6, 29, 48, 27, 27, 25, 13, 40, 29, 53, 38, 53, 49, 37, 36, 46, 27, 33, 39, 10, 7, 9, 25, 57, 38, 47, 50, 4, 7, 42, 15, 55, 56, 39, 55, 63, 33, 15, 28, 32, 28, 60, 26, 53, 53, 33, 40, 45, 55, 39, 59, 53, 52, 56, 56, 48, 54, 20, 31, 58, 27, 30, 46, 51, 51, 24, 5, 35, 20, 56, 17, 50, 62, 9, 59, 21, 34, 48, 34, 49, 52, 23, 18, 57, 50, 75, 50, 9, 46, 63, 43, 17, 64, 34, 38, 51, 45, 27, 44, 55, 8, 42, 29, 30, 24, 54, 36, 17, 23, 46, 22, 54, 16, 53, 54, 61, 39, 36, 65, 58, 61, 28, 37, 23, 53, 36, 36, 23, 30, 28, 31
              |68, 89, 29, 52, 55, 70, 49, 69, 52, 77, 38, 50, 52, 58, 33, 51, 28, 96, 56, 20, 41, 21, 29, 49, 40, 56, 40, 49, 61, 43, 30, 58, 40, 34, 59, 10, 75, 77, 31, 71, 70, 14, 2, 8, 13, 15, 50, 52, 94, 35, 77, 77, 29, 84, 39, 96, 64, 58, 76, 22, 82, 88, 66, 60, 64, 50, 52, 29, 33, 30, 85, 26, 83, 44, 34, 20, 28, 60, 32, 93, 40, 46, 66, 96, 87, 89, 76, 4, 34, 77, 96, 90, 44, 46, 89, 66, 77, 31, 46, 39, 57, 78, 53, 41, 50, 69, 49, 84, 18, 47, 71, 46, 77, 34, 31, 89, 76, 83, 37, 48, 36, 87, 40, 46, 53, 59, 88, 49, 7, 7, 87, 65, 81, 15, 46, 81, 75, 74, 62, 92, 72, 56, 45, 33, 55, 75, 59, 14, 34, 49, 49, 69, 101, 57, 93, 99, 25, 81, 36, 21, 77, 50, 84, 23, 91, 76, 81, 13, 36, 34, 49, 87, 66, 66, 32, 50, 35, 53, 85, 64, 24, 88, 3, 16, 26, 21, 69, 36, 38, 45, 47, 19, 77, 68, 30, 83, 41, 33, 59, 54, 83, 54, 72, 88, 91, 7, 52, 64, 67, 50, 51, 38, 53, 66, 44, 10, 72, 35, 67, 93, 36, 44, 54, 94, 32, 91, 41, 54, 92, 55, 60, 59, 65, 83, 56, 42, 75, 50, 95, 24, 79, 96, 46, 84, 45, 57, 69, 73, 84, 91, 50, 22, 90, 87, 104, 87, 48, 64, 95, 80, 23, 88, 73, 49, 60, 76, 47, 17, 94, 32, 59, 63, 52, 37, 78, 28, 53, 49, 15, 27, 94, 49, 92, 32, 96, 69, 19, 93, 90, 50, 57, 72, 24, 76, 4, 31, 59, 61, 52, 69
              |68, 78, 43, 92, 58, 47, 81, 64, 73, 92, 12, 46, 55, 92, 28, 20, 32, 85, 49, 23, 4, 44, 32, 75, 61, 43, 3, 20, 74, 26, 29, 95, 57, 8, 86, 48, 68, 77, 67, 90, 84, 47, 41, 47, 53, 49, 62, 92, 89, 16, 80, 107, 33, 99, 50, 95, 78, 75, 71, 23, 71, 113, 55, 81, 80, 76, 67, 71, 37, 70, 90, 19, 90, 83, 61, 22, 55, 43, 35, 117, 79, 84, 41, 91, 84, 82, 87, 38, 56, 75, 118, 77, 78, 4, 109, 88, 74, 16, 78, 13, 53, 58, 19, 82, 53, 53, 82, 81, 60, 10, 54, 74, 77, 66, 12, 97, 107, 87, 79, 85, 34, 102, 69, 78, 78, 90, 113, 59, 38, 40, 108, 95, 107, 55, 62, 105, 102, 60, 35, 113, 93, 81, 78, 11, 22, 57, 53, 39, 56, 10, 90, 91, 89, 90, 105, 119, 67, 86, 18, 33, 66, 54, 91, 65, 112, 82, 103, 55, 44, 48, 33, 86, 76, 74, 26, 64, 11, 39, 67, 89, 65, 89, 40, 26, 16, 30, 64, 74, 43, 51, 60, 33, 107, 52, 71, 101, 56, 47, 89, 65, 107, 93, 60, 71, 115, 42, 67, 59, 83, 36, 9, 27, 91, 99, 24, 52, 96, 77, 90, 77, 78, 84, 93, 105, 73, 103, 35, 37, 109, 78, 49, 29, 98, 103, 76, 57, 76, 71, 90, 49, 102, 80, 61, 110, 70, 39, 98, 80, 99, 98, 73, 41, 74, 78, 127, 99, 59, 94, 115, 74, 48, 114, 81, 82, 95, 97, 33, 59, 99, 49, 89, 80, 36, 29, 104, 17, 52, 73, 57, 58, 96, 67, 87, 74, 111, 53, 59, 117, 110, 9, 45, 89, 55, 103, 43, 68, 57, 50, 39, 80
              |43, 67, 11, 48, 30, 57, 29, 46, 24, 48, 43, 31, 28, 40, 28, 51, 21, 72, 37, 33, 50, 9, 22, 23, 11, 41, 52, 48, 32, 37, 25, 45, 11, 45, 34, 21, 51, 50, 20, 42, 41, 16, 27, 23, 23, 15, 22, 48, 68, 38, 49, 54, 21, 55, 13, 68, 35, 29, 52, 30, 59, 62, 46, 32, 35, 24, 23, 42, 19, 29, 57, 45, 54, 36, 9, 35, 4, 45, 21, 66, 34, 36, 56, 70, 60, 64, 47, 29, 5, 51, 69, 69, 27, 57, 61, 38, 52, 36, 26, 42, 35, 62, 53, 42, 26, 52, 30, 58, 30, 52, 54, 22, 51, 15, 46, 60, 54, 55, 49, 36, 24, 58, 17, 26, 26, 38, 62, 22, 35, 36, 59, 42, 56, 24, 17, 55, 50, 54, 53, 65, 44, 30, 27, 41, 53, 58, 38, 18, 5, 54, 49, 41, 77, 38, 64, 71, 40, 53, 37, 20, 56, 25, 55, 32, 64, 48, 54, 29, 16, 10, 38, 61, 37, 38, 28, 21, 42, 40, 66, 38, 39, 61, 27, 31, 42, 23, 46, 27, 19, 21, 19, 21, 54, 51, 33, 54, 13, 9, 37, 26, 56, 45, 52, 68, 64, 22, 23, 42, 38, 38, 61, 31, 43, 47, 39, 28, 46, 41, 40, 72, 40, 40, 45, 64, 34, 62, 28, 41, 64, 27, 43, 54, 45, 55, 27, 14, 48, 22, 69, 5, 52, 75, 17, 59, 18, 45, 46, 45, 55, 62, 22, 12, 70, 63, 77, 57, 21, 42, 67, 56, 6, 63, 45, 30, 43, 48, 36, 30, 65, 7, 37, 34, 40, 29, 53, 35, 30, 21, 33, 9, 66, 19, 66, 40, 67, 52, 22, 66, 62, 62, 40, 43, 9, 52, 25, 23, 36, 42, 39, 40
              |81, 107, 53, 9, 71, 100, 29, 87, 50, 71, 78, 74, 69, 30, 67, 90, 60, 112, 80, 61, 83, 45, 61, 40, 45, 84, 83, 87, 64, 78, 64, 22, 50, 76, 43, 36, 92, 86, 23, 61, 69, 38, 44, 37, 31, 36, 59, 9, 105, 74, 85, 50, 60, 76, 56, 102, 64, 57, 91, 62, 100, 66, 88, 52, 63, 41, 57, 20, 61, 15, 89, 69, 84, 13, 37, 63, 38, 88, 62, 71, 11, 14, 98, 106, 97, 103, 75, 47, 44, 88, 77, 110, 24, 89, 73, 56, 91, 71, 29, 78, 77, 105, 91, 2, 68, 95, 28, 96, 25, 88, 97, 37, 88, 30, 74, 88, 48, 88, 18, 17, 66, 78, 33, 30, 44, 35, 65, 62, 50, 48, 72, 42, 58, 29, 53, 64, 52, 97, 95, 75, 60, 44, 25, 74, 93, 101, 80, 47, 44, 90, 6, 57, 117, 30, 86, 81, 23, 86, 74, 55, 97, 67, 85, 20, 75, 81, 65, 30, 59, 53, 80, 97, 70, 72, 67, 57, 76, 82, 109, 51, 25, 96, 45, 58, 69, 57, 87, 17, 62, 63, 58, 54, 51, 93, 13, 72, 53, 52, 37, 62, 63, 15, 94, 110, 70, 42, 57, 83, 63, 80, 94, 71, 16, 37, 79, 33, 55, 11, 54, 114, 8, 5, 15, 88, 11, 85, 71, 84, 80, 48, 85, 95, 37, 69, 52, 54, 85, 49, 106, 42, 63, 116, 55, 62, 41, 87, 46, 78, 75, 91, 46, 49, 112, 103, 82, 82, 60, 41, 79, 96, 43, 63, 77, 28, 29, 63, 78, 27, 95, 50, 37, 60, 83, 70, 57, 68, 73, 44, 30, 34, 98, 51, 103, 14, 86, 95, 26, 71, 74, 93, 83, 65, 35, 54, 42, 20, 78, 85, 81, 70
              |48, 73, 17, 41, 36, 64, 25, 52, 25, 50, 47, 38, 34, 35, 33, 56, 26, 78, 44, 35, 54, 12, 27, 22, 13, 48, 55, 53, 36, 43, 30, 39, 16, 49, 32, 18, 57, 55, 14, 43, 44, 14, 26, 20, 19, 12, 26, 41, 73, 43, 54, 52, 26, 56, 20, 73, 38, 31, 58, 33, 66, 61, 52, 32, 38, 23, 27, 36, 25, 23, 61, 47, 58, 29, 6, 38, 2, 52, 27, 66, 27, 30, 62, 75, 66, 70, 50, 28, 9, 56, 69, 75, 22, 61, 61, 39, 58, 40, 21, 47, 41, 68, 58, 35, 33, 59, 25, 64, 25, 57, 61, 19, 56, 9, 49, 63, 51, 60, 43, 30, 30, 60, 13, 22, 25, 34, 61, 28, 34, 34, 60, 40, 54, 19, 21, 54, 48, 61, 60, 65, 44, 29, 22, 45, 59, 65, 44, 19, 9, 59, 43, 41, 83, 34, 66, 71, 34, 58, 42, 24, 62, 32, 59, 26, 64, 52, 54, 24, 22, 17, 45, 66, 41, 42, 33, 26, 46, 46, 73, 37, 34, 66, 26, 33, 45, 27, 52, 20, 26, 27, 24, 24, 52, 57, 27, 56, 19, 16, 33, 30, 56, 39, 58, 75, 64, 21, 27, 48, 40, 44, 65, 37, 37, 43, 45, 24, 45, 35, 39, 79, 34, 34, 39, 67, 28, 64, 35, 48, 65, 28, 49, 60, 41, 55, 28, 19, 53, 23, 74, 7, 52, 81, 22, 57, 17, 51, 43, 49, 57, 66, 23, 16, 77, 69, 77, 60, 26, 39, 67, 62, 9, 61, 49, 25, 39, 49, 43, 25, 69, 13, 33, 36, 47, 35, 52, 39, 37, 21, 29, 2, 70, 22, 72, 34, 69, 59, 17, 66, 62, 66, 47, 44, 4, 50, 23, 17, 42, 49, 45, 44
              |48, 65, 16, 70, 36, 42, 56, 46, 47, 67, 16, 26, 33, 66, 6, 26, 6, 72, 32, 13, 23, 19, 6, 49, 35, 30, 26, 23, 49, 16, 4, 70, 31, 20, 60, 29, 52, 57, 43, 64, 59, 25, 26, 29, 34, 27, 37, 70, 72, 12, 59, 80, 7, 74, 24, 76, 53, 49, 53, 8, 57, 87, 40, 55, 54, 50, 42, 55, 12, 48, 68, 24, 68, 59, 35, 16, 29, 32, 9, 91, 56, 60, 38, 74, 66, 66, 63, 24, 30, 56, 92, 65, 53, 31, 83, 62, 56, 10, 52, 16, 34, 51, 28, 62, 31, 43, 56, 63, 42, 26, 44, 48, 57, 41, 22, 75, 81, 66, 63, 61, 11, 77, 43, 53, 51, 64, 87, 34, 28, 30, 82, 69, 81, 36, 36, 78, 76, 48, 34, 87, 67, 55, 53, 16, 29, 49, 35, 17, 30, 28, 70, 64, 76, 64, 81, 93, 51, 64, 11, 8, 52, 31, 69, 46, 86, 60, 77, 38, 18, 21, 21, 67, 52, 51, 4, 38, 15, 26, 59, 62, 50, 69, 25, 15, 21, 7, 46, 50, 18, 27, 34, 9, 80, 41, 51, 75, 30, 21, 63, 40, 81, 69, 47, 62, 88, 24, 41, 41, 58, 23, 35, 10, 68, 73, 17, 35, 70, 58, 64, 67, 58, 62, 69, 81, 53, 79, 16, 26, 84, 52, 35, 32, 72, 77, 50, 31, 55, 45, 73, 24, 76, 70, 35, 84, 43, 30, 72, 57, 74, 75, 47, 15, 64, 63, 101, 75, 34, 68, 89, 58, 23, 88, 58, 56, 70, 71, 20, 41, 78, 23, 63, 54, 25, 9, 78, 10, 31, 46, 41, 33, 76, 41, 70, 56, 86, 43, 38, 91, 84, 36, 30, 63, 30, 77, 26, 45, 37, 35, 26, 56
              |40, 58, 12, 70, 27, 38, 52, 39, 41, 60, 21, 18, 25, 63, 5, 27, 5, 64, 24, 21, 29, 19, 4, 44, 30, 23, 33, 24, 41, 14, 4, 68, 25, 27, 55, 32, 44, 49, 42, 57, 52, 27, 31, 32, 36, 29, 30, 70, 64, 17, 51, 76, 4, 67, 18, 68, 46, 42, 46, 16, 50, 81, 33, 49, 47, 45, 35, 57, 5, 49, 60, 32, 60, 58, 32, 24, 27, 27, 2, 84, 55, 59, 35, 66, 58, 58, 55, 30, 25, 48, 86, 58, 50, 37, 76, 55, 48, 17, 49, 20, 26, 45, 30, 62, 23, 36, 53, 55, 44, 30, 38, 44, 49, 38, 30, 67, 76, 58, 65, 59, 3, 70, 40, 49, 46, 60, 81, 26, 34, 36, 75, 64, 75, 38, 30, 72, 70, 41, 32, 81, 60, 50, 50, 22, 30, 43, 28, 20, 25, 32, 70, 58, 69, 61, 74, 87, 54, 56, 15, 11, 45, 23, 61, 48, 79, 52, 71, 41, 11, 16, 17, 59, 44, 43, 6, 31, 21, 21, 52, 57, 53, 61, 30, 22, 29, 13, 39, 49, 10, 19, 27, 14, 75, 35, 52, 68, 23, 15, 59, 33, 75, 68, 40, 55, 82, 28, 34, 34, 51, 18, 40, 8, 66, 70, 16, 38, 64, 60, 58, 60, 59, 62, 68, 73, 54, 71, 9, 21, 77, 46, 28, 31, 68, 70, 43, 24, 47, 39, 65, 22, 69, 64, 28, 78, 38, 25, 67, 49, 67, 67, 41, 15, 58, 56, 94, 67, 27, 64, 82, 50, 21, 82, 50, 53, 66, 64, 15, 44, 70, 18, 59, 48, 20, 6, 72, 18, 23, 41, 45, 31, 68, 35, 62, 58, 79, 36, 39, 84, 77, 42, 24, 56, 29, 72, 30, 45, 29, 28, 20, 48
              |29, 10, 67, 112, 42, 44, 84, 27, 61, 51, 77, 47, 44, 91, 67, 69, 70, 4, 41, 86, 83, 76, 68, 71, 66, 45, 89, 67, 47, 62, 69, 102, 61, 86, 74, 91, 21, 24, 89, 59, 47, 86, 94, 93, 95, 86, 52, 111, 9, 75, 27, 88, 68, 52, 59, 20, 49, 55, 20, 81, 16, 80, 33, 63, 51, 71, 54, 113, 63, 99, 29, 96, 35, 99, 74, 88, 75, 44, 65, 79, 100, 99, 49, 9, 15, 8, 42, 94, 68, 22, 75, 13, 87, 90, 67, 63, 20, 77, 83, 75, 39, 34, 70, 110, 46, 35, 86, 15, 102, 79, 34, 75, 23, 81, 91, 38, 90, 28, 120, 97, 62, 53, 77, 82, 69, 85, 81, 49, 99, 101, 66, 82, 81, 96, 57, 72, 80, 27, 55, 70, 63, 70, 87, 82, 68, 32, 37, 82, 68, 80, 116, 64, 7, 89, 49, 72, 111, 29, 72, 76, 21, 47, 34, 103, 69, 33, 68, 100, 60, 64, 55, 16, 42, 39, 69, 53, 79, 49, 24, 69, 111, 20, 93, 87, 92, 78, 27, 93, 58, 52, 53, 78, 86, 35, 104, 59, 59, 64, 82, 48, 75, 106, 27, 21, 77, 90, 53, 32, 52, 52, 90, 64, 103, 92, 64, 98, 71, 112, 67, 16, 110, 106, 106, 46, 104, 47, 57, 50, 60, 65, 39, 61, 90, 64, 60, 58, 26, 62, 9, 75, 69, 16, 56, 80, 69, 48, 82, 34, 53, 34, 65, 74, 18, 9, 82, 46, 51, 83, 69, 16, 76, 84, 36, 86, 95, 63, 55, 102, 31, 66, 82, 54, 51, 64, 78, 81, 43, 67, 104, 79, 25, 59, 9, 111, 56, 35, 94, 79, 67, 93, 43, 54, 81, 80, 93, 92, 37, 38, 49, 43
              |56, 66, 33, 87, 45, 36, 73, 51, 62, 80, 3, 33, 43, 83, 17, 11, 22, 73, 36, 21, 9, 37, 22, 66, 51, 30, 14, 10, 62, 14, 19, 88, 47, 12, 76, 44, 56, 65, 61, 79, 72, 42, 39, 44, 49, 44, 51, 87, 77, 6, 67, 97, 23, 87, 39, 83, 67, 64, 58, 18, 59, 103, 42, 71, 68, 66, 56, 69, 27, 65, 77, 24, 78, 77, 52, 22, 47, 31, 24, 106, 73, 78, 31, 79, 72, 69, 75, 36, 47, 63, 107, 65, 70, 16, 98, 77, 62, 9, 70, 2, 41, 47, 13, 78, 41, 41, 74, 69, 57, 9, 42, 65, 64, 58, 17, 85, 97, 75, 78, 78, 23, 90, 61, 70, 68, 82, 103, 47, 38, 40, 96, 85, 97, 51, 51, 94, 92, 48, 25, 102, 81, 71, 71, 9, 14, 46, 41, 33, 47, 11, 86, 80, 77, 82, 93, 108, 66, 73, 7, 25, 54, 42, 79, 62, 100, 70, 92, 52, 33, 37, 20, 73, 64, 62, 16, 52, 6, 26, 56, 78, 64, 76, 38, 24, 20, 23, 51, 67, 31, 39, 48, 26, 97, 40, 67, 89, 45, 37, 80, 53, 96, 87, 48, 60, 104, 39, 55, 47, 71, 23, 19, 15, 85, 91, 11, 49, 86, 74, 79, 66, 74, 79, 87, 92, 69, 90, 23, 25, 97, 68, 36, 21, 89, 91, 65, 46, 63, 60, 78, 41, 91, 69, 50, 99, 60, 27, 88, 67, 87, 85, 63, 33, 63, 66, 115, 87, 47, 85, 103, 62, 40, 104, 68, 74, 87, 86, 21, 56, 87, 39, 80, 69, 24, 17, 94, 13, 39, 63, 55, 50, 83, 56, 75, 71, 99, 41, 54, 106, 98, 21, 32, 77, 48, 93, 40, 62, 44, 37, 26, 68
              |26, 37, 29, 86, 19, 19, 63, 21, 45, 55, 32, 8, 18, 73, 22, 27, 27, 44, 6, 41, 39, 38, 25, 52, 39, 3, 45, 25, 38, 17, 25, 81, 33, 41, 61, 52, 25, 35, 58, 56, 47, 48, 52, 53, 57, 48, 31, 85, 46, 30, 38, 81, 25, 61, 26, 52, 43, 43, 27, 36, 29, 82, 12, 52, 45, 52, 36, 78, 22, 67, 48, 50, 49, 73, 45, 44, 43, 7, 22, 84, 72, 73, 19, 48, 41, 39, 48, 51, 37, 32, 84, 37, 63, 46, 74, 56, 31, 32, 61, 30, 12, 24, 29, 80, 17, 15, 64, 38, 65, 36, 17, 53, 34, 52, 46, 56, 82, 45, 85, 73, 19, 64, 52, 60, 52, 69, 82, 25, 56, 58, 73, 71, 78, 58, 34, 72, 74, 20, 20, 78, 60, 55, 63, 37, 28, 21, 11, 41, 37, 38, 87, 59, 48, 71, 66, 83, 75, 44, 27, 33, 25, 18, 50, 68, 77, 41, 70, 62, 22, 28, 10, 43, 38, 35, 24, 33, 34, 5, 31, 60, 74, 46, 52, 43, 46, 34, 21, 65, 19, 20, 29, 35, 80, 13, 71, 65, 30, 29, 67, 31, 75, 82, 19, 34, 82, 49, 35, 16, 48, 7, 48, 19, 80, 78, 19, 59, 66, 79, 60, 39, 78, 78, 82, 65, 72, 63, 13, 7, 72, 51, 6, 24, 76, 68, 46, 30, 33, 43, 47, 39, 69, 42, 32, 79, 47, 9, 72, 39, 62, 56, 47, 35, 36, 36, 92, 59, 27, 70, 79, 31, 39, 85, 40, 64, 77, 64, 10, 65, 57, 31, 67, 47, 7, 19, 75, 36, 13, 48, 66, 47, 53, 39, 44, 77, 72, 15, 58, 84, 75, 50, 2, 54, 47, 75, 52, 61, 15, 7, 4, 42
              |24, 33, 60, 92, 36, 59, 63, 31, 42, 24, 81, 47, 39, 68, 67, 78, 67, 32, 44, 84, 88, 67, 66, 51, 51, 52, 94, 75, 29, 66, 67, 79, 49, 89, 51, 81, 28, 15, 72, 34, 23, 76, 86, 83, 83, 75, 38, 91, 19, 78, 13, 61, 65, 25, 50, 11, 28, 35, 25, 79, 33, 52, 41, 40, 29, 50, 38, 99, 60, 84, 3, 96, 8, 80, 59, 87, 63, 53, 62, 51, 81, 79, 63, 19, 15, 24, 17, 87, 55, 18, 47, 37, 68, 96, 39, 38, 21, 79, 63, 79, 39, 52, 79, 92, 41, 47, 65, 17, 89, 86, 48, 55, 16, 64, 93, 10, 64, 5, 104, 76, 60, 25, 59, 62, 48, 62, 53, 39, 93, 94, 38, 58, 53, 84, 43, 44, 54, 41, 67, 42, 37, 48, 67, 84, 78, 49, 39, 75, 55, 88, 97, 39, 35, 66, 21, 44, 98, 7, 75, 71, 35, 40, 7, 90, 41, 12, 41, 89, 54, 55, 60, 12, 23, 22, 69, 39, 82, 55, 46, 45, 98, 8, 86, 84, 92, 74, 31, 76, 53, 45, 41, 73, 60, 47, 88, 31, 47, 56, 59, 34, 47, 84, 39, 44, 49, 81, 37, 34, 29, 57, 98, 66, 81, 67, 69, 88, 45, 95, 42, 42, 93, 87, 84, 19, 88, 19, 58, 57, 32, 44, 46, 72, 66, 36, 40, 46, 17, 43, 19, 65, 42, 42, 43, 52, 51, 57, 56, 15, 26, 7, 46, 67, 43, 27, 54, 18, 40, 58, 41, 25, 66, 57, 16, 65, 72, 37, 60, 90, 7, 56, 59, 32, 57, 65, 51, 81, 41, 48, 93, 66, 6, 43, 19, 96, 29, 47, 81, 51, 39, 100, 49, 29, 68, 53, 84, 76, 36, 45, 55, 21
              |8, 25, 37, 86, 12, 30, 60, 4, 37, 40, 50, 17, 14, 68, 38, 46, 40, 31, 13, 56, 58, 46, 38, 47, 38, 20, 63, 44, 26, 35, 39, 78, 33, 59, 53, 61, 9, 16, 60, 44, 32, 56, 63, 62, 64, 56, 25, 85, 29, 48, 19, 71, 38, 45, 29, 34, 30, 33, 10, 51, 18, 69, 11, 42, 32, 46, 28, 84, 33, 71, 29, 67, 31, 73, 45, 59, 46, 22, 35, 70, 72, 73, 33, 31, 23, 23, 32, 63, 39, 14, 69, 27, 61, 65, 59, 45, 13, 49, 58, 49, 9, 27, 48, 82, 16, 19, 61, 20, 72, 55, 21, 49, 15, 53, 63, 38, 73, 27, 91, 71, 32, 48, 50, 57, 46, 63, 70, 21, 69, 70, 58, 63, 66, 65, 30, 59, 64, 16, 36, 63, 48, 48, 61, 55, 47, 23, 8, 52, 39, 56, 89, 47, 36, 66, 48, 68, 81, 26, 45, 45, 15, 16, 32, 74, 62, 23, 57, 70, 30, 33, 29, 24, 24, 20, 40, 26, 52, 24, 27, 50, 81, 27, 63, 58, 63, 48, 4, 66, 28, 22, 25, 48, 70, 18, 75, 50, 30, 34, 61, 22, 62, 80, 13, 28, 68, 59, 28, 3, 35, 26, 67, 36, 78, 71, 38, 68, 55, 83, 49, 31, 81, 79, 80, 47, 76, 45, 28, 26, 56, 43, 15, 41, 69, 54, 38, 29, 14, 37, 30, 45, 56, 33, 28, 67, 43, 26, 63, 22, 46, 37, 41, 44, 29, 21, 77, 42, 23, 63, 64, 15, 45, 72, 23, 61, 72, 50, 28, 72, 38, 36, 61, 35, 26, 35, 63, 52, 13, 43, 74, 50, 35, 34, 27, 82, 55, 19, 64, 70, 60, 69, 17, 40, 51, 64, 62, 64, 6, 13, 23, 27
              |47, 71, 50, 50, 45, 81, 24, 56, 20, 21, 82, 56, 46, 24, 66, 86, 61, 73, 58, 75, 90, 51, 61, 19, 32, 66, 93, 83, 27, 72, 64, 36, 36, 86, 10, 59, 58, 47, 41, 12, 23, 55, 67, 61, 58, 53, 33, 49, 63, 78, 43, 18, 60, 24, 43, 56, 23, 21, 57, 71, 67, 21, 63, 12, 21, 18, 28, 66, 56, 50, 43, 87, 37, 40, 35, 77, 41, 70, 59, 24, 43, 38, 82, 64, 56, 64, 29, 69, 38, 50, 28, 75, 30, 97, 21, 8, 53, 77, 26, 81, 53, 80, 89, 53, 46, 71, 25, 55, 60, 91, 73, 22, 49, 35, 88, 38, 20, 43, 68, 35, 60, 26, 29, 25, 16, 18, 21, 38, 75, 75, 20, 13, 15, 57, 31, 13, 11, 69, 83, 25, 8, 13, 29, 82, 89, 76, 56, 60, 38, 93, 56, 7, 78, 23, 34, 31, 66, 42, 76, 62, 66, 45, 38, 58, 23, 38, 13, 62, 50, 45, 70, 54, 30, 34, 67, 31, 82, 68, 79, 4, 67, 51, 68, 73, 84, 65, 56, 40, 52, 45, 35, 62, 17, 70, 54, 19, 37, 46, 16, 33, 14, 42, 66, 79, 22, 62, 29, 55, 18, 68, 101, 68, 39, 22, 75, 63, 4, 59, 4, 80, 56, 48, 42, 36, 53, 33, 61, 70, 27, 15, 64, 86, 21, 16, 18, 37, 46, 22, 63, 47, 11, 81, 33, 17, 24, 72, 11, 37, 23, 42, 20, 54, 79, 66, 35, 31, 37, 13, 27, 59, 48, 22, 35, 25, 27, 11, 68, 61, 47, 44, 16, 18, 69, 66, 12, 76, 51, 21, 66, 41, 51, 26, 62, 61, 33, 71, 53, 24, 22, 102, 64, 16, 45, 11, 64, 43, 51, 63, 67, 28
              |39, 56, 15, 73, 27, 35, 55, 37, 42, 61, 20, 17, 24, 66, 4, 25, 8, 62, 23, 22, 28, 22, 6, 47, 32, 21, 32, 22, 42, 11, 5, 71, 27, 26, 57, 35, 42, 49, 45, 59, 52, 30, 33, 35, 39, 32, 31, 73, 63, 16, 50, 78, 7, 67, 19, 67, 47, 44, 44, 17, 48, 83, 31, 51, 48, 47, 36, 61, 7, 52, 60, 33, 60, 61, 34, 25, 30, 24, 5, 86, 59, 62, 32, 65, 57, 57, 56, 32, 28, 47, 87, 56, 53, 35, 78, 57, 47, 16, 52, 18, 25, 43, 27, 65, 22, 34, 56, 54, 48, 28, 36, 46, 48, 41, 30, 67, 78, 58, 68, 62, 3, 70, 43, 52, 48, 63, 83, 27, 37, 39, 76, 66, 77, 41, 31, 74, 73, 39, 28, 82, 62, 52, 53, 22, 27, 40, 26, 23, 28, 30, 73, 60, 67, 64, 74, 88, 57, 56, 13, 14, 43, 23, 61, 51, 81, 52, 72, 44, 13, 18, 14, 58, 45, 43, 6, 33, 20, 18, 50, 59, 56, 60, 33, 24, 29, 15, 37, 52, 11, 19, 28, 16, 77, 32, 55, 70, 25, 18, 61, 34, 76, 71, 38, 53, 84, 30, 35, 32, 52, 15, 39, 5, 69, 72, 13, 41, 66, 63, 59, 58, 63, 65, 71, 74, 57, 72, 6, 18, 78, 48, 25, 28, 70, 71, 45, 26, 47, 40, 64, 25, 71, 61, 30, 80, 41, 22, 69, 49, 68, 67, 43, 18, 55, 54, 95, 68, 28, 66, 84, 48, 24, 84, 50, 56, 69, 66, 12, 47, 69, 21, 61, 49, 17, 3, 74, 18, 22, 43, 48, 34, 67, 37, 61, 61, 80, 34, 42, 86, 79, 40, 21, 57, 32, 74, 33, 48, 28, 26, 17, 49
              |80, 104, 45, 26, 67, 92, 37, 84, 52, 76, 65, 67, 65, 42, 56, 78, 50, 110, 74, 47, 69, 36, 51, 45, 43, 76, 68, 75, 65, 67, 53, 37, 47, 62, 51, 23, 89, 86, 22, 68, 72, 27, 29, 24, 18, 26, 57, 26, 105, 61, 85, 63, 51, 82, 51, 103, 67, 59, 89, 49, 97, 77, 83, 57, 66, 46, 57, 5, 52, 11, 91, 53, 87, 24, 35, 48, 33, 80, 53, 82, 19, 26, 89, 106, 97, 101, 79, 32, 41, 87, 88, 106, 31, 74, 82, 62, 89, 58, 35, 65, 72, 98, 79, 15, 64, 88, 36, 95, 10, 75, 91, 41, 87, 30, 59, 92, 61, 90, 11, 29, 56, 85, 35, 36, 49, 46, 77, 59, 34, 32, 81, 53, 69, 16, 52, 73, 63, 91, 85, 85, 67, 50, 32, 60, 81, 95, 75, 35, 41, 77, 22, 64, 115, 41, 92, 91, 6, 88, 62, 44, 93, 63, 88, 6, 84, 82, 74, 15, 52, 47, 71, 97, 71, 73, 56, 56, 63, 74, 103, 58, 8, 97, 30, 44, 54, 45, 84, 21, 55, 58, 55, 42, 64, 87, 7, 79, 50, 46, 47, 61, 74, 31, 89, 105, 81, 29, 57, 79, 67, 72, 79, 61, 32, 50, 68, 18, 64, 7, 61, 110, 9, 20, 31, 94, 9, 91, 62, 75, 88, 52, 79, 84, 50, 77, 55, 51, 84, 51, 105, 35, 72, 112, 53, 73, 43, 79, 57, 80, 82, 95, 49, 39, 107, 100, 94, 87, 57, 52, 88, 93, 35, 75, 79, 36, 43, 71, 69, 11, 99, 44, 47, 63, 74, 60, 68, 55, 68, 47, 13, 29, 100, 51, 103, 4, 93, 88, 16, 82, 83, 78, 76, 70, 28, 65, 27, 18, 74, 79, 73, 73
              |70, 96, 54, 20, 62, 97, 14, 77, 36, 51, 84, 69, 62, 6, 70, 93, 64, 99, 74, 71, 91, 49, 64, 27, 38, 80, 92, 90, 50, 80, 67, 5, 44, 86, 23, 48, 81, 72, 27, 41, 51, 47, 57, 50, 45, 45, 49, 19, 90, 80, 70, 25, 63, 54, 52, 85, 48, 42, 80, 70, 90, 41, 81, 34, 46, 27, 45, 43, 61, 30, 71, 82, 66, 15, 34, 73, 39, 84, 64, 46, 20, 13, 96, 91, 82, 89, 57, 60, 41, 75, 52, 99, 16, 98, 49, 36, 78, 78, 17, 84, 70, 99, 95, 26, 61, 89, 13, 82, 43, 94, 91, 25, 74, 28, 85, 68, 22, 72, 43, 10, 66, 56, 26, 17, 28, 13, 40, 54, 65, 64, 48, 18, 33, 43, 44, 40, 27, 89, 95, 51, 39, 27, 15, 82, 96, 95, 73, 55, 41, 97, 27, 36, 104, 8, 64, 57, 45, 70, 79, 61, 88, 60, 67, 39, 50, 65, 41, 47, 57, 51, 80, 81, 55, 58, 71, 47, 83, 80, 101, 30, 47, 80, 58, 69, 81, 64, 77, 21, 60, 57, 49, 61, 26, 88, 32, 50, 47, 51, 15, 51, 39, 11, 86, 101, 45, 54, 46, 75, 45, 79, 103, 74, 9, 12, 82, 49, 32, 34, 33, 103, 31, 20, 11, 67, 30, 64, 70, 82, 57, 31, 80, 96, 12, 46, 37, 47, 71, 36, 91, 45, 40, 106, 46, 37, 31, 85, 22, 63, 54, 72, 32, 53, 102, 90, 57, 61, 51, 17, 54, 84, 46, 38, 61, 13, 4, 41, 78, 44, 77, 48, 15, 43, 81, 72, 33, 76, 66, 31, 48, 36, 80, 40, 89, 37, 63, 89, 38, 46, 50, 103, 79, 45, 39, 29, 54, 27, 70, 79, 79, 54
              |76, 102, 46, 16, 65, 93, 28, 81, 47, 69, 70, 67, 63, 32, 59, 82, 52, 107, 73, 53, 75, 38, 54, 38, 40, 77, 75, 79, 60, 70, 56, 26, 45, 68, 42, 28, 86, 82, 17, 60, 66, 30, 36, 29, 23, 28, 54, 17, 101, 66, 80, 53, 53, 74, 50, 98, 61, 53, 86, 54, 95, 68, 82, 50, 60, 39, 52, 15, 53, 7, 85, 61, 81, 14, 32, 55, 32, 81, 55, 73, 9, 16, 91, 102, 93, 98, 72, 39, 38, 84, 78, 104, 22, 81, 73, 55, 86, 63, 27, 70, 71, 98, 84, 6, 62, 88, 27, 91, 17, 80, 91, 34, 83, 25, 66, 85, 50, 85, 16, 19, 58, 77, 29, 28, 41, 36, 67, 57, 42, 40, 72, 43, 60, 21, 48, 64, 53, 90, 88, 76, 59, 42, 23, 66, 85, 95, 74, 39, 38, 82, 14, 56, 112, 31, 85, 82, 17, 82, 66, 48, 92, 61, 82, 13, 75, 77, 65, 22, 52, 46, 73, 92, 66, 68, 59, 52, 68, 75, 103, 50, 19, 92, 37, 50, 61, 49, 81, 13, 55, 57, 52, 46, 53, 87, 5, 71, 48, 46, 37, 57, 64, 21, 88, 104, 71, 34, 53, 77, 61, 73, 86, 64, 21, 40, 72, 25, 55, 7, 53, 108, 4, 9, 21, 86, 3, 83, 63, 77, 80, 45, 79, 87, 39, 68, 49, 48, 80, 45, 101, 35, 63, 111, 50, 64, 37, 80, 47, 75, 74, 89, 42, 41, 106, 98, 84, 80, 54, 42, 79, 91, 35, 65, 74, 27, 32, 63, 71, 19, 93, 43, 37, 57, 75, 62, 58, 60, 67, 40, 22, 27, 94, 47, 99, 9, 85, 88, 18, 73, 74, 85, 76, 63, 28, 55, 34, 13, 72, 79, 74, 67
              |26, 16, 51, 105, 31, 17, 79, 17, 57, 58, 53, 28, 32, 88, 46, 43, 50, 23, 22, 64, 58, 60, 49, 67, 57, 22, 64, 42, 46, 38, 48, 97, 51, 62, 73, 75, 16, 30, 78, 63, 51, 70, 75, 76, 79, 71, 44, 104, 31, 51, 34, 91, 48, 63, 45, 40, 50, 53, 18, 59, 11, 88, 13, 62, 52, 66, 49, 100, 45, 88, 43, 73, 46, 92, 64, 66, 63, 20, 45, 89, 91, 92, 23, 33, 30, 23, 49, 75, 57, 26, 86, 15, 81, 64, 77, 65, 23, 54, 77, 51, 24, 9, 44, 100, 33, 9, 81, 27, 87, 53, 8, 69, 28, 71, 67, 52, 93, 40, 107, 90, 42, 65, 69, 77, 66, 83, 89, 40, 79, 81, 76, 83, 86, 81, 49, 79, 84, 4, 29, 81, 67, 68, 80, 58, 42, 6, 21, 64, 57, 54, 107, 67, 27, 86, 64, 85, 97, 40, 49, 56, 8, 34, 47, 90, 80, 40, 76, 84, 44, 49, 31, 32, 43, 39, 47, 46, 55, 26, 8, 70, 96, 36, 75, 66, 68, 58, 17, 84, 41, 38, 44, 59, 90, 10, 92, 68, 48, 50, 81, 42, 82, 100, 7, 10, 87, 72, 48, 19, 55, 29, 64, 42, 97, 91, 40, 82, 75, 100, 69, 16, 99, 98, 100, 61, 93, 61, 36, 26, 72, 63, 17, 35, 89, 72, 58, 47, 29, 57, 32, 61, 76, 19, 48, 86, 63, 23, 83, 39, 64, 50, 61, 57, 13, 19, 95, 58, 42, 83, 81, 19, 61, 92, 41, 81, 92, 69, 32, 87, 49, 52, 81, 55, 27, 42, 83, 58, 28, 63, 89, 67, 44, 53, 29, 99, 71, 9, 80, 89, 78, 67, 21, 59, 68, 84, 75, 82, 24, 17, 26, 46
              |34, 53, 11, 69, 21, 37, 49, 33, 36, 54, 27, 13, 18, 60, 11, 31, 10, 59, 20, 27, 35, 19, 9, 40, 26, 21, 39, 28, 35, 17, 10, 66, 21, 33, 50, 34, 39, 43, 41, 52, 45, 29, 34, 35, 38, 30, 24, 69, 59, 23, 44, 71, 8, 60, 13, 62, 40, 37, 40, 22, 45, 76, 29, 44, 41, 40, 29, 59, 4, 49, 54, 39, 53, 57, 29, 30, 25, 25, 5, 79, 55, 57, 34, 61, 52, 53, 49, 34, 22, 42, 80, 54, 48, 43, 71, 50, 42, 23, 46, 25, 21, 43, 33, 62, 16, 33, 50, 49, 46, 35, 35, 40, 43, 36, 36, 60, 72, 52, 67, 57, 4, 64, 37, 46, 42, 57, 76, 20, 39, 41, 69, 60, 70, 40, 24, 67, 66, 37, 32, 75, 55, 45, 48, 29, 34, 40, 22, 23, 22, 37, 70, 53, 64, 58, 68, 81, 56, 50, 21, 16, 41, 16, 54, 50, 74, 46, 65, 43, 6, 12, 17, 53, 38, 36, 13, 25, 27, 19, 49, 52, 55, 55, 34, 28, 35, 18, 33, 48, 4, 13, 21, 18, 71, 32, 53, 62, 18, 12, 55, 27, 69, 66, 36, 51, 77, 31, 28, 28, 45, 17, 46, 12, 64, 66, 19, 41, 59, 60, 52, 56, 60, 61, 66, 67, 54, 65, 7, 20, 71, 41, 24, 33, 64, 64, 38, 19, 41, 34, 60, 22, 64, 59, 23, 73, 34, 24, 62, 43, 61, 61, 37, 16, 54, 51, 88, 61, 21, 59, 76, 44, 21, 77, 43, 50, 64, 59, 15, 46, 63, 15, 55, 42, 19, 10, 67, 24, 17, 37, 47, 30, 61, 30, 57, 59, 73, 33, 40, 79, 71, 47, 21, 50, 29, 67, 34, 44, 23, 24, 18, 42
              |95, 120, 64, 18, 84, 111, 43, 100, 64, 85, 85, 85, 82, 44, 76, 98, 69, 125, 92, 67, 89, 55, 71, 55, 58, 95, 88, 95, 78, 87, 73, 34, 63, 82, 58, 43, 105, 100, 35, 76, 83, 46, 49, 44, 38, 45, 72, 19, 119, 82, 98, 63, 70, 90, 68, 116, 78, 71, 105, 69, 113, 79, 100, 66, 77, 56, 70, 19, 71, 25, 103, 73, 99, 27, 50, 68, 50, 99, 72, 84, 25, 28, 108, 120, 111, 116, 90, 52, 57, 102, 90, 123, 38, 94, 87, 70, 104, 78, 43, 86, 89, 116, 99, 14, 80, 107, 42, 109, 30, 95, 109, 51, 101, 43, 79, 102, 60, 102, 12, 31, 76, 92, 47, 44, 58, 49, 78, 75, 53, 51, 86, 56, 71, 36, 66, 77, 65, 109, 105, 89, 74, 59, 39, 81, 101, 113, 92, 55, 57, 97, 11, 72, 130, 44, 100, 95, 23, 100, 82, 64, 110, 80, 99, 26, 88, 95, 79, 35, 70, 64, 90, 110, 84, 86, 76, 71, 83, 93, 121, 65, 25, 110, 50, 64, 74, 65, 100, 31, 73, 75, 71, 62, 64, 105, 21, 86, 66, 64, 51, 76, 77, 27, 106, 123, 83, 49, 71, 96, 77, 91, 99, 81, 29, 50, 88, 38, 69, 14, 68, 126, 14, 19, 27, 102, 20, 99, 81, 94, 94, 62, 97, 104, 50, 83, 66, 67, 99, 63, 119, 53, 77, 129, 68, 75, 55, 98, 60, 92, 90, 106, 60, 59, 124, 116, 95, 96, 73, 55, 92, 109, 53, 76, 91, 42, 42, 77, 89, 31, 110, 61, 51, 74, 93, 79, 71, 75, 85, 58, 33, 46, 112, 65, 117, 16, 100, 107, 35, 84, 88, 98, 94, 79, 46, 67, 47, 32, 90, 97, 92, 85
              |52, 75, 59, 55, 52, 88, 31, 61, 28, 22, 90, 63, 53, 29, 74, 94, 69, 76, 65, 83, 98, 60, 69, 28, 40, 73, 101, 91, 33, 80, 72, 40, 44, 95, 18, 67, 63, 50, 49, 15, 27, 64, 76, 69, 66, 62, 41, 54, 65, 86, 47, 15, 68, 22, 51, 57, 28, 28, 61, 80, 71, 12, 69, 20, 26, 27, 35, 73, 64, 57, 44, 95, 39, 46, 44, 86, 50, 77, 67, 16, 50, 44, 89, 65, 58, 66, 31, 78, 46, 54, 20, 79, 37, 106, 14, 14, 57, 85, 34, 89, 59, 86, 96, 59, 53, 77, 32, 58, 68, 99, 79, 31, 52, 43, 96, 38, 19, 45, 75, 41, 68, 23, 37, 33, 24, 23, 12, 46, 84, 84, 14, 16, 8, 65, 39, 5, 8, 74, 90, 17, 11, 21, 36, 91, 96, 82, 62, 68, 46, 101, 62, 12, 80, 28, 31, 23, 74, 44, 84, 70, 71, 52, 39, 66, 16, 41, 7, 70, 58, 54, 77, 56, 35, 39, 75, 39, 90, 75, 84, 13, 75, 53, 76, 82, 93, 74, 61, 47, 60, 53, 43, 71, 14, 76, 61, 16, 46, 54, 22, 40, 6, 46, 71, 83, 14, 71, 36, 61, 23, 75, 109, 76, 44, 24, 83, 71, 5, 66, 11, 84, 63, 53, 46, 34, 60, 31, 69, 77, 22, 23, 71, 94, 23, 11, 26, 45, 50, 30, 65, 55, 5, 85, 41, 9, 33, 79, 13, 40, 21, 42, 28, 62, 83, 69, 27, 29, 44, 17, 20, 63, 57, 14, 38, 32, 31, 9, 76, 69, 46, 52, 22, 24, 77, 74, 5, 85, 58, 29, 73, 50, 51, 34, 64, 68, 29, 77, 61, 16, 15, 111, 71, 19, 53, 7, 73, 51, 58, 69, 74, 32
              |32, 13, 60, 113, 39, 23, 87, 24, 65, 63, 61, 37, 41, 96, 55, 50, 59, 19, 31, 73, 66, 69, 58, 75, 65, 31, 72, 49, 53, 47, 57, 105, 60, 70, 80, 84, 21, 34, 87, 69, 57, 79, 85, 85, 88, 80, 52, 113, 30, 60, 38, 98, 57, 67, 54, 40, 56, 61, 23, 68, 13, 93, 22, 69, 58, 74, 56, 109, 54, 97, 45, 81, 49, 100, 72, 75, 72, 28, 54, 94, 100, 100, 29, 31, 31, 22, 54, 84, 65, 30, 91, 10, 89, 71, 82, 71, 27, 63, 85, 59, 33, 12, 51, 109, 42, 18, 89, 29, 96, 60, 16, 77, 32, 80, 75, 55, 100, 43, 116, 99, 51, 68, 78, 85, 73, 91, 94, 48, 88, 90, 81, 90, 92, 90, 58, 84, 90, 13, 35, 85, 73, 76, 89, 66, 49, 12, 30, 73, 65, 61, 116, 73, 21, 94, 66, 89, 106, 43, 57, 65, 13, 43, 50, 99, 84, 44, 81, 93, 53, 58, 40, 33, 49, 45, 56, 54, 63, 34, 2, 77, 105, 38, 84, 75, 77, 67, 24, 93, 50, 47, 53, 68, 96, 19, 101, 73, 57, 59, 88, 50, 87, 108, 16, 2, 92, 81, 55, 27, 61, 38, 71, 51, 106, 99, 48, 91, 81, 109, 76, 8, 108, 106, 108, 64, 102, 64, 45, 35, 76, 71, 26, 41, 97, 77, 65, 56, 34, 65, 30, 70, 81, 11, 56, 92, 71, 32, 90, 44, 68, 52, 69, 67, 5, 18, 98, 62, 51, 90, 85, 21, 70, 97, 46, 89, 100, 75, 41, 96, 51, 61, 88, 62, 36, 51, 89, 66, 37, 71, 98, 76, 45, 61, 29, 108, 74, 18, 89, 94, 82, 74, 30, 65, 77, 90, 84, 90, 32, 26, 35, 52
              |89, 115, 57, 20, 78, 104, 41, 94, 60, 83, 77, 79, 76, 43, 69, 90, 62, 120, 85, 59, 81, 48, 63, 51, 53, 88, 80, 87, 74, 79, 66, 35, 57, 74, 55, 35, 99, 95, 30, 73, 79, 39, 41, 36, 30, 38, 67, 21, 114, 74, 94, 63, 63, 87, 62, 112, 74, 67, 99, 61, 107, 79, 94, 63, 73, 52, 65, 11, 64, 19, 99, 65, 95, 25, 45, 60, 44, 92, 65, 84, 22, 27, 101, 115, 106, 111, 86, 44, 51, 97, 90, 117, 35, 86, 85, 68, 99, 70, 40, 78, 83, 110, 92, 12, 74, 100, 40, 104, 23, 87, 102, 47, 96, 38, 71, 99, 61, 98, 5, 30, 68, 90, 43, 41, 55, 48, 78, 69, 45, 43, 85, 55, 71, 28, 61, 76, 65, 102, 98, 88, 72, 56, 36, 73, 93, 106, 86, 47, 51, 89, 14, 69, 125, 43, 98, 94, 15, 96, 74, 56, 104, 74, 96, 18, 87, 91, 78, 27, 63, 58, 83, 106, 79, 82, 68, 66, 75, 86, 115, 63, 17, 105, 42, 56, 66, 57, 94, 26, 66, 69, 65, 55, 64, 98, 15, 84, 60, 57, 49, 71, 76, 28, 100, 116, 83, 41, 66, 90, 74, 84, 91, 73, 30, 50, 81, 30, 68, 7, 66, 120, 9, 18, 28, 100, 14, 96, 74, 87, 92, 58, 90, 96, 50, 81, 62, 61, 94, 59, 115, 46, 76, 123, 62, 75, 51, 91, 59, 88, 87, 102, 56, 51, 118, 110, 95, 93, 67, 54, 91, 103, 46, 76, 87, 40, 42, 76, 81, 23, 106, 55, 49, 70, 86, 72, 70, 67, 79, 54, 25, 40, 108, 60, 112, 9, 98, 100, 27, 84, 86, 90, 87, 76, 39, 67, 39, 26, 84, 90, 85, 81
              |51, 72, 62, 62, 52, 88, 38, 60, 32, 19, 93, 64, 54, 36, 77, 96, 73, 73, 66, 87, 101, 65, 73, 33, 45, 74, 105, 93, 34, 82, 76, 47, 48, 98, 24, 73, 61, 48, 55, 15, 26, 69, 81, 75, 72, 67, 43, 61, 61, 89, 44, 21, 71, 17, 54, 52, 29, 30, 59, 84, 69, 11, 69, 24, 27, 32, 38, 80, 67, 64, 40, 100, 35, 53, 49, 90, 55, 77, 70, 13, 57, 51, 90, 61, 55, 63, 28, 83, 50, 52, 14, 76, 44, 109, 7, 17, 55, 88, 40, 92, 60, 85, 98, 66, 55, 77, 39, 55, 74, 102, 79, 37, 50, 49, 100, 33, 25, 42, 82, 49, 71, 17, 43, 39, 30, 30, 12, 47, 89, 89, 6, 24, 12, 72, 42, 3, 15, 73, 91, 10, 12, 27, 43, 94, 98, 81, 62, 73, 50, 104, 69, 14, 76, 36, 25, 16, 80, 40, 87, 74, 69, 54, 35, 73, 9, 38, 1, 76, 61, 57, 79, 53, 34, 38, 78, 41, 93, 76, 82, 18, 81, 49, 81, 87, 97, 78, 60, 54, 62, 55, 45, 75, 20, 76, 68, 11, 49, 58, 29, 41, 5, 53, 70, 81, 10, 76, 38, 60, 23, 77, 113, 79, 51, 31, 85, 77, 11, 73, 16, 81, 70, 61, 53, 28, 67, 25, 71, 78, 15, 28, 71, 95, 30, 5, 29, 48, 48, 34, 61, 60, 3, 82, 44, 10, 38, 80, 20, 38, 16, 37, 33, 67, 81, 66, 22, 24, 46, 25, 13, 61, 61, 15, 36, 39, 38, 8, 77, 76, 41, 56, 29, 25, 78, 77, 11, 89, 59, 34, 80, 55, 46, 38, 60, 75, 22, 77, 67, 13, 8, 114, 72, 18, 59, 14, 78, 58, 58, 70, 75, 31
              |38, 63, 40, 51, 34, 71, 22, 47, 9, 20, 71, 45, 35, 27, 55, 75, 50, 66, 48, 64, 79, 42, 50, 12, 22, 56, 82, 72, 17, 61, 53, 38, 25, 76, 10, 51, 49, 39, 35, 11, 18, 46, 59, 53, 51, 45, 22, 50, 57, 67, 36, 28, 49, 25, 32, 52, 15, 10, 48, 61, 58, 31, 53, 1, 13, 11, 17, 62, 45, 46, 38, 77, 33, 39, 26, 67, 32, 59, 48, 35, 41, 38, 72, 58, 49, 56, 24, 61, 27, 43, 37, 67, 27, 86, 29, 6, 45, 66, 23, 70, 42, 70, 77, 51, 35, 61, 24, 48, 54, 80, 63, 16, 41, 28, 77, 36, 30, 38, 66, 35, 49, 28, 22, 22, 8, 21, 31, 27, 66, 67, 27, 19, 26, 50, 20, 23, 22, 59, 72, 33, 12, 7, 26, 71, 77, 66, 45, 50, 27, 82, 56, 9, 71, 26, 36, 39, 61, 36, 65, 51, 57, 34, 34, 53, 31, 31, 22, 55, 39, 35, 59, 48, 22, 26, 56, 20, 71, 57, 70, 7, 62, 46, 59, 64, 74, 55, 47, 36, 40, 34, 24, 52, 27, 60, 50, 23, 26, 35, 19, 22, 25, 43, 56, 70, 33, 53, 18, 45, 12, 57, 90, 57, 40, 28, 64, 56, 14, 56, 8, 71, 54, 47, 43, 37, 49, 34, 50, 59, 32, 5, 53, 75, 27, 22, 7, 26, 38, 11, 57, 37, 20, 73, 22, 28, 16, 61, 20, 30, 25, 40, 10, 44, 71, 58, 45, 30, 26, 20, 35, 51, 38, 33, 28, 24, 31, 16, 57, 55, 44, 33, 19, 9, 58, 55, 23, 66, 40, 11, 59, 33, 47, 15, 55, 57, 37, 61, 46, 35, 30, 91, 53, 14, 36, 22, 56, 38, 41, 52, 56, 21
              |61, 87, 38, 23, 51, 83, 9, 67, 28, 50, 68, 56, 50, 16, 54, 77, 48, 91, 61, 55, 75, 33, 48, 19, 25, 67, 76, 74, 43, 64, 51, 18, 31, 69, 23, 32, 71, 65, 11, 41, 47, 31, 41, 34, 29, 28, 38, 22, 83, 64, 63, 36, 47, 55, 38, 80, 42, 35, 71, 53, 80, 50, 69, 30, 41, 20, 35, 33, 46, 17, 67, 65, 63, 10, 19, 57, 23, 71, 48, 55, 11, 10, 82, 85, 76, 81, 54, 44, 26, 67, 60, 89, 3, 81, 54, 35, 70, 61, 7, 68, 58, 86, 80, 21, 49, 77, 8, 74, 29, 78, 79, 15, 66, 12, 68, 66, 35, 67, 36, 9, 51, 57, 13, 8, 22, 18, 49, 42, 49, 48, 53, 25, 42, 28, 33, 45, 35, 77, 80, 57, 40, 23, 4, 66, 80, 83, 61, 38, 26, 80, 27, 37, 96, 15, 65, 63, 33, 64, 63, 45, 78, 48, 64, 26, 56, 59, 46, 32, 42, 36, 65, 75, 48, 51, 55, 37, 67, 66, 89, 30, 35, 74, 42, 52, 64, 47, 67, 7, 45, 44, 38, 44, 37, 75, 21, 52, 34, 36, 19, 41, 46, 18, 75, 90, 53, 37, 36, 64, 42, 64, 86, 58, 16, 25, 66, 34, 36, 26, 33, 93, 24, 17, 18, 67, 20, 64, 55, 68, 60, 26, 67, 81, 24, 49, 30, 35, 64, 28, 84, 28, 44, 96, 34, 46, 20, 71, 29, 57, 55, 70, 24, 37, 92, 82, 66, 60, 40, 24, 60, 75, 30, 48, 56, 8, 19, 43, 63, 30, 74, 33, 19, 38, 67, 56, 40, 59, 54, 22, 34, 19, 76, 30, 82, 28, 66, 77, 23, 55, 55, 86, 65, 44, 22, 37, 38, 12, 58, 67, 65, 49
              |24, 41, 54, 81, 32, 62, 52, 33, 32, 13, 78, 45, 35, 57, 63, 77, 62, 41, 43, 79, 86, 60, 61, 41, 42, 52, 91, 74, 20, 64, 63, 68, 41, 85, 40, 73, 32, 18, 63, 22, 13, 68, 79, 75, 75, 67, 31, 80, 29, 75, 14, 50, 60, 15, 44, 22, 18, 25, 30, 74, 39, 42, 43, 29, 18, 40, 29, 89, 55, 74, 9, 91, 4, 69, 50, 82, 54, 54, 57, 42, 71, 68, 65, 30, 23, 32, 6, 80, 47, 22, 39, 45, 57, 94, 30, 27, 25, 75, 52, 77, 38, 56, 79, 81, 37, 50, 54, 24, 80, 84, 51, 45, 20, 55, 89, 8, 53, 10, 94, 65, 56, 16, 49, 52, 37, 50, 43, 33, 86, 87, 29, 46, 43, 75, 35, 34, 43, 45, 68, 33, 26, 37, 56, 81, 78, 53, 39, 68, 47, 86, 86, 27, 45, 55, 16, 37, 88, 9, 72, 66, 40, 36, 4, 80, 32, 9, 31, 80, 49, 49, 59, 21, 15, 16, 65, 31, 79, 55, 52, 33, 89, 18, 79, 79, 87, 69, 33, 65, 49, 40, 34, 67, 49, 50, 78, 21, 40, 49, 48, 27, 37, 73, 42, 51, 40, 74, 29, 35, 18, 56, 96, 63, 70, 56, 67, 80, 34, 85, 31, 50, 83, 76, 73, 15, 78, 13, 55, 57, 24, 34, 47, 73, 54, 26, 30, 39, 19, 34, 30, 57, 31, 51, 35, 42, 41, 57, 45, 11, 16, 10, 36, 60, 50, 35, 47, 10, 34, 47, 33, 31, 58, 47, 9, 54, 60, 26, 58, 81, 14, 49, 48, 21, 57, 61, 40, 77, 38, 38, 84, 57, 17, 34, 29, 86, 23, 50, 72, 42, 30, 98, 49, 18, 60, 42, 77, 66, 35, 45, 54, 12
              |40, 65, 19, 45, 29, 61, 22, 45, 14, 39, 51, 34, 27, 32, 36, 58, 30, 70, 39, 43, 59, 19, 30, 14, 3, 45, 61, 55, 25, 44, 34, 39, 9, 55, 24, 29, 50, 45, 20, 33, 33, 25, 36, 31, 30, 23, 17, 45, 64, 47, 44, 45, 29, 46, 16, 63, 27, 20, 50, 40, 58, 52, 47, 22, 27, 14, 16, 46, 26, 31, 51, 55, 47, 32, 5, 45, 10, 49, 29, 56, 32, 32, 60, 66, 56, 61, 39, 38, 6, 47, 59, 68, 22, 66, 51, 29, 49, 45, 19, 51, 35, 64, 60, 41, 26, 54, 23, 54, 35, 61, 56, 13, 47, 12, 56, 52, 45, 49, 51, 31, 31, 49, 10, 19, 16, 29, 52, 20, 44, 45, 50, 33, 46, 30, 11, 45, 40, 55, 59, 55, 34, 20, 21, 51, 61, 60, 38, 28, 6, 63, 48, 31, 75, 30, 55, 61, 44, 47, 46, 30, 55, 25, 48, 36, 54, 42, 44, 35, 21, 16, 44, 56, 31, 32, 37, 16, 51, 44, 67, 28, 44, 56, 37, 41, 52, 33, 45, 25, 24, 22, 16, 30, 45, 53, 35, 45, 12, 16, 28, 21, 46, 41, 52, 68, 54, 31, 17, 41, 29, 43, 70, 39, 38, 39, 47, 35, 36, 43, 30, 72, 41, 38, 41, 56, 36, 53, 34, 46, 54, 17, 45, 60, 37, 45, 17, 12, 44, 12, 65, 15, 42, 74, 13, 49, 8, 49, 36, 39, 46, 55, 13, 22, 70, 61, 67, 49, 18, 33, 57, 54, 16, 53, 38, 23, 36, 38, 42, 36, 59, 13, 28, 25, 45, 37, 43, 45, 31, 11, 39, 12, 59, 11, 62, 43, 58, 54, 27, 56, 52, 71, 43, 34, 15, 42, 34, 23, 36, 44, 43, 33
              |56, 79, 60, 51, 55, 91, 29, 65, 30, 27, 92, 66, 55, 25, 75, 96, 70, 81, 68, 83, 99, 60, 71, 28, 41, 76, 102, 93, 36, 82, 74, 35, 45, 96, 17, 66, 67, 55, 47, 19, 31, 63, 75, 68, 65, 61, 43, 50, 69, 87, 51, 10, 69, 27, 53, 62, 32, 30, 65, 81, 75, 12, 73, 22, 30, 27, 38, 71, 65, 55, 49, 96, 43, 43, 43, 86, 50, 80, 68, 17, 47, 41, 92, 70, 63, 71, 35, 77, 47, 59, 22, 83, 35, 107, 18, 17, 62, 86, 32, 90, 63, 89, 98, 56, 56, 81, 30, 63, 66, 100, 83, 30, 57, 42, 97, 43, 14, 50, 72, 38, 70, 28, 36, 31, 25, 20, 12, 48, 83, 83, 18, 13, 5, 64, 41, 9, 4, 78, 93, 20, 15, 21, 34, 92, 98, 85, 65, 68, 47, 103, 58, 15, 85, 25, 36, 26, 71, 48, 85, 71, 75, 55, 44, 64, 20, 45, 11, 69, 59, 55, 80, 61, 39, 43, 77, 41, 91, 77, 88, 14, 73, 58, 75, 82, 93, 74, 65, 45, 61, 55, 45, 71, 9, 80, 59, 21, 47, 56, 19, 43, 8, 42, 75, 87, 15, 70, 39, 64, 27, 78, 111, 78, 40, 20, 85, 70, 7, 63, 14, 88, 60, 50, 42, 39, 57, 36, 71, 80, 27, 24, 74, 96, 19, 16, 28, 47, 54, 32, 70, 55, 10, 89, 43, 8, 33, 82, 9, 45, 26, 47, 29, 63, 88, 73, 28, 34, 47, 14, 24, 68, 57, 12, 43, 30, 27, 14, 78, 67, 51, 53, 19, 27, 79, 75, 2, 86, 60, 30, 72, 49, 56, 36, 69, 65, 33, 81, 59, 17, 19, 112, 74, 23, 53, 2, 72, 49, 61, 73, 77, 36
              |27, 1, 62, 110, 38, 35, 83, 21, 60, 53, 69, 40, 40, 90, 60, 60, 63, 6, 34, 79, 75, 71, 62, 70, 63, 37, 81, 59, 47, 54, 62, 101, 58, 78, 74, 86, 16, 25, 86, 60, 48, 81, 88, 87, 90, 81, 49, 110, 16, 67, 28, 89, 61, 56, 54, 26, 49, 55, 16, 74, 9, 83, 26, 63, 51, 69, 52, 109, 57, 96, 33, 88, 38, 97, 71, 81, 72, 36, 58, 83, 97, 97, 41, 17, 18, 9, 44, 88, 64, 21, 79, 4, 85, 81, 71, 64, 18, 70, 82, 67, 34, 25, 62, 107, 41, 26, 84, 17, 97, 70, 25, 73, 23, 78, 83, 43, 92, 31, 116, 95, 55, 57, 75, 81, 68, 85, 84, 46, 93, 95, 70, 83, 83, 91, 55, 74, 82, 19, 46, 74, 64, 70, 85, 74, 60, 23, 31, 76, 64, 71, 114, 65, 10, 89, 54, 77, 107, 32, 64, 69, 13, 42, 38, 99, 73, 34, 71, 95, 55, 59, 47, 20, 42, 38, 62, 51, 71, 41, 16, 70, 107, 25, 88, 81, 84, 72, 21, 91, 52, 47, 50, 72, 88, 27, 100, 62, 55, 60, 82, 46, 77, 104, 19, 12, 81, 84, 51, 26, 53, 44, 82, 57, 102, 92, 56, 93, 73, 108, 68, 9, 107, 104, 104, 51, 101, 52, 50, 42, 64, 65, 32, 52, 90, 67, 59, 54, 25, 60, 16, 71, 71, 10, 53, 82, 67, 40, 83, 35, 57, 39, 64, 69, 10, 6, 87, 50, 48, 83, 73, 13, 71, 87, 37, 84, 94, 66, 48, 97, 37, 61, 82, 54, 43, 57, 80, 73, 38, 66, 100, 76, 31, 57, 15, 108, 61, 26, 90, 83, 71, 85, 36, 56, 77, 82, 87, 89, 32, 31, 41, 44
              |30, 21, 52, 107, 34, 13, 82, 21, 61, 63, 50, 29, 35, 91, 45, 40, 50, 27, 23, 63, 55, 61, 48, 70, 59, 21, 62, 39, 50, 37, 47, 100, 53, 60, 77, 76, 21, 35, 80, 67, 56, 71, 75, 76, 80, 72, 47, 107, 36, 50, 39, 95, 48, 67, 47, 45, 54, 57, 23, 58, 16, 92, 15, 66, 56, 70, 52, 101, 45, 90, 48, 71, 51, 94, 66, 65, 65, 18, 45, 93, 93, 94, 19, 37, 35, 28, 54, 74, 59, 31, 91, 18, 83, 61, 82, 69, 28, 53, 80, 49, 27, 4, 41, 102, 35, 8, 84, 32, 88, 50, 6, 72, 33, 73, 65, 57, 97, 45, 108, 93, 42, 69, 72, 80, 69, 86, 93, 43, 79, 81, 81, 86, 90, 81, 52, 83, 88, 8, 25, 86, 71, 72, 83, 56, 39, 2, 23, 64, 59, 51, 109, 71, 30, 89, 68, 90, 98, 45, 47, 56, 13, 36, 51, 91, 84, 45, 80, 85, 45, 50, 30, 37, 47, 43, 47, 49, 53, 25, 8, 74, 97, 41, 75, 65, 67, 57, 21, 86, 42, 40, 47, 58, 94, 10, 93, 73, 50, 51, 84, 46, 86, 103, 11, 12, 91, 72, 51, 22, 59, 28, 61, 41, 100, 95, 38, 83, 79, 101, 73, 18, 100, 100, 103, 66, 95, 66, 36, 25, 77, 67, 18, 31, 93, 77, 61, 50, 34, 60, 37, 62, 80, 21, 50, 91, 66, 22, 87, 44, 68, 55, 64, 58, 15, 24, 99, 63, 45, 86, 86, 24, 62, 96, 46, 84, 95, 74, 31, 88, 54, 54, 84, 59, 26, 41, 87, 56, 30, 66, 89, 69, 49, 57, 34, 100, 76, 8, 81, 93, 82, 64, 21, 64, 69, 88, 75, 83, 27, 18, 25, 51
              |38, 51, 67, 87, 47, 75, 59, 46, 42, 17, 93, 59, 49, 61, 77, 91, 76, 49, 57, 92, 100, 73, 75, 49, 54, 66, 105, 89, 33, 79, 77, 72, 54, 100, 45, 85, 45, 31, 72, 27, 23, 80, 92, 87, 86, 79, 44, 86, 36, 89, 27, 50, 74, 13, 57, 26, 29, 36, 42, 88, 50, 38, 57, 37, 29, 48, 41, 99, 69, 83, 18, 105, 15, 76, 61, 96, 66, 68, 71, 36, 78, 74, 79, 36, 32, 41, 18, 93, 59, 35, 30, 55, 65, 108, 24, 32, 37, 89, 60, 91, 52, 69, 93, 89, 51, 64, 61, 34, 90, 99, 65, 53, 32, 65, 103, 8, 53, 21, 103, 72, 71, 11, 59, 59, 45, 55, 39, 47, 99, 100, 24, 49, 41, 86, 48, 31, 43, 58, 82, 26, 29, 44, 64, 95, 92, 66, 53, 81, 59, 101, 93, 31, 52, 60, 4, 27, 98, 21, 86, 79, 52, 51, 14, 90, 25, 23, 28, 91, 63, 62, 74, 30, 29, 30, 79, 44, 93, 69, 64, 38, 99, 26, 92, 92, 101, 83, 46, 74, 63, 54, 48, 81, 48, 63, 87, 18, 53, 63, 53, 41, 34, 78, 55, 61, 34, 86, 42, 49, 27, 71, 111, 77, 76, 58, 82, 91, 36, 94, 35, 60, 91, 83, 78, 1, 87, 4, 69, 71, 16, 42, 61, 87, 57, 23, 39, 52, 32, 44, 36, 69, 30, 60, 48, 39, 51, 71, 47, 25, 14, 11, 45, 74, 60, 45, 37, 7, 47, 50, 24, 42, 70, 42, 24, 61, 64, 26, 72, 91, 14, 62, 53, 31, 71, 76, 39, 91, 53, 48, 95, 68, 20, 45, 36, 95, 11, 64, 82, 36, 24, 113, 63, 24, 71, 42, 89, 76, 49, 59, 68, 25
              |21, 46, 23, 64, 11, 47, 37, 26, 16, 30, 50, 21, 11, 46, 34, 52, 32, 51, 24, 48, 58, 30, 31, 25, 16, 32, 62, 49, 12, 38, 34, 55, 12, 57, 32, 44, 31, 27, 39, 29, 22, 39, 49, 46, 46, 38, 2, 63, 45, 46, 26, 52, 30, 37, 13, 45, 16, 14, 30, 44, 40, 54, 30, 23, 18, 25, 7, 64, 25, 50, 34, 61, 32, 50, 24, 52, 26, 36, 28, 56, 50, 50, 48, 47, 38, 42, 26, 50, 19, 28, 57, 49, 39, 66, 47, 28, 30, 46, 35, 49, 19, 48, 55, 60, 11, 38, 39, 36, 53, 58, 40, 27, 28, 31, 59, 38, 53, 32, 70, 49, 28, 40, 28, 35, 24, 41, 54, 4, 56, 57, 46, 42, 49, 47, 8, 44, 46, 38, 48, 52, 32, 27, 38, 52, 54, 44, 22, 38, 19, 60, 67, 30, 56, 44, 44, 57, 62, 30, 44, 35, 37, 10, 33, 54, 50, 25, 42, 52, 19, 18, 35, 38, 15, 15, 36, 4, 51, 33, 49, 31, 62, 38, 49, 49, 57, 39, 26, 44, 19, 11, 4, 37, 51, 37, 54, 39, 10, 19, 39, 3, 47, 58, 35, 50, 54, 44, 6, 23, 21, 33, 69, 35, 55, 50, 41, 51, 38, 62, 31, 53, 60, 57, 58, 44, 55, 42, 28, 35, 47, 22, 30, 51, 48, 41, 17, 9, 25, 15, 46, 28, 41, 55, 6, 51, 21, 37, 43, 22, 37, 40, 19, 30, 51, 42, 65, 38, 3, 42, 53, 35, 28, 56, 22, 39, 50, 36, 34, 53, 43, 19, 39, 19, 35, 33, 46, 47, 16, 21, 56, 30, 43, 11, 44, 62, 49, 38, 45, 56, 48, 71, 29, 27, 32, 46, 47, 43, 18, 29, 32, 19
              |17, 15, 47, 98, 24, 24, 72, 8, 49, 49, 54, 25, 26, 80, 44, 47, 48, 22, 18, 63, 60, 56, 46, 59, 50, 22, 66, 45, 37, 39, 46, 90, 44, 63, 65, 71, 7, 21, 72, 54, 42, 66, 72, 72, 75, 66, 37, 97, 25, 52, 25, 82, 46, 53, 40, 33, 41, 45, 9, 58, 7, 79, 10, 54, 43, 59, 40, 95, 42, 82, 34, 73, 37, 85, 57, 66, 57, 21, 43, 80, 84, 85, 29, 27, 22, 17, 40, 72, 50, 17, 77, 16, 73, 67, 68, 56, 14, 54, 70, 52, 18, 17, 48, 94, 27, 13, 73, 19, 82, 56, 13, 61, 19, 65, 68, 44, 84, 31, 102, 83, 40, 55, 62, 69, 58, 75, 80, 33, 77, 79, 67, 74, 77, 76, 42, 69, 75, 6, 34, 72, 58, 60, 73, 59, 46, 14, 16, 61, 50, 57, 101, 58, 26, 78, 55, 76, 92, 31, 49, 54, 3, 28, 38, 85, 71, 31, 67, 80, 39, 44, 32, 24, 34, 30, 46, 38, 56, 26, 15, 61, 92, 28, 72, 65, 69, 56, 8, 78, 37, 33, 37, 56, 81, 13, 86, 59, 41, 45, 73, 34, 72, 93, 4, 16, 77, 69, 40, 11, 46, 29, 68, 42, 90, 83, 41, 78, 66, 94, 60, 19, 93, 91, 93, 52, 87, 52, 34, 27, 63, 55, 16, 39, 81, 63, 49, 41, 20, 49, 26, 56, 66, 22, 40, 77, 55, 25, 75, 30, 54, 41, 53, 54, 17, 14, 85, 49, 35, 74, 72, 11, 56, 82, 32, 73, 84, 60, 32, 82, 41, 47, 73, 46, 28, 41, 74, 58, 23, 55, 84, 62, 36, 46, 23, 93, 62, 13, 75, 80, 68, 71, 20, 50, 62, 75, 72, 75, 17, 15, 26, 37
              |10, 17, 48, 93, 22, 36, 66, 9, 43, 38, 62, 29, 25, 73, 50, 56, 52, 21, 24, 68, 69, 57, 50, 53, 47, 31, 75, 54, 30, 47, 51, 84, 42, 71, 57, 72, 6, 9, 69, 44, 32, 67, 75, 73, 75, 67, 33, 93, 17, 59, 13, 73, 50, 42, 39, 22, 32, 38, 3, 63, 12, 68, 19, 46, 34, 52, 35, 94, 45, 80, 22, 79, 25, 80, 55, 71, 56, 31, 47, 69, 81, 80, 40, 19, 11, 12, 29, 75, 49, 5, 66, 20, 69, 76, 57, 47, 2, 61, 65, 60, 21, 30, 58, 91, 27, 25, 67, 8, 82, 65, 25, 56, 7, 62, 75, 31, 76, 19, 100, 78, 44, 44, 58, 64, 51, 68, 69, 30, 81, 82, 56, 66, 67, 76, 38, 59, 66, 19, 45, 60, 48, 53, 68, 66, 57, 26, 20, 63, 49, 67, 97, 49, 25, 72, 42, 64, 92, 19, 56, 57, 13, 27, 25, 84, 59, 19, 56, 81, 41, 44, 40, 13, 25, 21, 52, 34, 64, 34, 25, 53, 92, 17, 75, 70, 75, 60, 9, 74, 39, 33, 34, 59, 72, 25, 85, 48, 39, 45, 65, 29, 62, 87, 16, 24, 66, 71, 34, 14, 37, 37, 77, 48, 85, 75, 49, 79, 57, 92, 51, 25, 91, 87, 87, 40, 85, 40, 40, 36, 52, 48, 25, 50, 73, 52, 42, 39, 9, 43, 18, 56, 56, 27, 37, 67, 51, 35, 66, 19, 43, 29, 47, 55, 24, 11, 74, 37, 32, 66, 60, 4, 56, 72, 21, 67, 77, 50, 40, 82, 29, 47, 65, 38, 37, 47, 64, 64, 25, 49, 85, 60, 24, 41, 15, 92, 50, 25, 74, 69, 57, 80, 28, 40, 61, 65, 74, 73, 18, 23, 34, 27
              |6, 21, 41, 88, 16, 32, 62, 4, 39, 38, 55, 22, 18, 70, 43, 51, 45, 26, 17, 61, 62, 50, 43, 49, 41, 25, 68, 48, 26, 40, 44, 80, 36, 64, 54, 65, 6, 12, 64, 43, 31, 60, 68, 67, 69, 60, 27, 88, 24, 53, 16, 71, 43, 43, 33, 29, 30, 34, 6, 56, 15, 68, 14, 43, 32, 48, 30, 88, 38, 74, 25, 72, 28, 75, 49, 64, 50, 26, 39, 69, 75, 75, 36, 26, 18, 18, 30, 68, 43, 9, 67, 24, 64, 70, 58, 45, 8, 54, 60, 53, 14, 28, 52, 85, 20, 21, 63, 15, 76, 59, 22, 51, 11, 56, 68, 35, 73, 23, 94, 74, 37, 45, 53, 60, 47, 64, 69, 24, 73, 75, 56, 63, 66, 70, 33, 59, 64, 16, 40, 61, 47, 49, 63, 60, 51, 24, 13, 56, 43, 61, 92, 47, 31, 68, 45, 65, 85, 22, 50, 50, 13, 21, 28, 78, 60, 21, 56, 74, 34, 38, 34, 19, 23, 19, 45, 29, 57, 28, 26, 50, 85, 22, 68, 63, 68, 53, 4, 69, 32, 26, 28, 52, 70, 21, 79, 48, 33, 38, 62, 24, 62, 83, 14, 26, 67, 64, 30, 7, 35, 31, 71, 41, 80, 72, 43, 72, 55, 86, 49, 28, 85, 82, 83, 43, 79, 42, 33, 30, 53, 44, 19, 45, 70, 52, 39, 33, 11, 39, 25, 49, 55, 31, 31, 66, 46, 30, 64, 19, 44, 33, 43, 48, 27, 17, 75, 39, 26, 64, 61, 10, 50, 71, 21, 63, 74, 49, 33, 76, 34, 40, 62, 35, 30, 40, 63, 57, 17, 45, 78, 54, 30, 36, 22, 86, 52, 21, 68, 69, 58, 74, 22, 39, 55, 64, 67, 67, 11, 17, 28, 26
              |47, 73, 28, 37, 38, 71, 12, 53, 16, 39, 60, 44, 36, 22, 45, 68, 39, 77, 49, 50, 68, 26, 40, 8, 12, 54, 70, 65, 29, 54, 43, 29, 18, 63, 17, 32, 58, 52, 15, 31, 35, 28, 40, 34, 31, 26, 25, 36, 70, 56, 50, 37, 38, 45, 26, 67, 30, 22, 57, 47, 67, 47, 56, 20, 29, 9, 22, 42, 36, 26, 55, 62, 51, 24, 9, 52, 16, 59, 38, 51, 24, 23, 70, 72, 62, 68, 42, 43, 15, 54, 55, 76, 12, 75, 48, 26, 56, 54, 9, 60, 45, 73, 70, 34, 36, 64, 13, 61, 34, 70, 66, 4, 53, 8, 63, 55, 37, 54, 47, 22, 41, 48, 2, 9, 12, 20, 46, 29, 48, 48, 46, 25, 39, 31, 19, 40, 33, 64, 69, 51, 31, 15, 12, 59, 71, 70, 48, 34, 15, 72, 40, 28, 82, 20, 55, 58, 41, 52, 55, 38, 64, 35, 51, 33, 50, 46, 40, 36, 31, 25, 54, 62, 35, 38, 46, 23, 59, 54, 76, 23, 42, 61, 41, 48, 60, 41, 53, 18, 34, 32, 24, 38, 37, 62, 31, 43, 21, 25, 19, 28, 41, 31, 61, 77, 49, 36, 23, 50, 30, 53, 79, 49, 29, 29, 56, 36, 30, 38, 26, 80, 35, 30, 31, 57, 30, 54, 44, 56, 52, 15, 55, 70, 27, 42, 18, 22, 50, 14, 71, 21, 38, 82, 21, 43, 6, 59, 28, 44, 45, 58, 12, 30, 78, 68, 62, 50, 26, 24, 54, 61, 23, 46, 43, 13, 26, 36, 52, 35, 62, 23, 19, 26, 55, 46, 37, 53, 41, 9, 39, 14, 64, 16, 69, 38, 57, 64, 26, 51, 49, 80, 53, 33, 18, 35, 38, 19, 45, 54, 53, 36
              |68, 84, 32, 71, 55, 59, 65, 66, 62, 85, 21, 46, 52, 75, 25, 35, 24, 91, 52, 7, 22, 29, 25, 62, 49, 48, 20, 34, 67, 32, 24, 76, 47, 15, 72, 28, 72, 77, 48, 80, 77, 28, 19, 26, 32, 31, 55, 72, 92, 20, 78, 92, 26, 91, 42, 96, 71, 66, 73, 12, 77, 101, 60, 70, 72, 62, 59, 49, 31, 49, 88, 6, 87, 63, 46, 4, 40, 51, 29, 105, 59, 65, 54, 94, 86, 86, 82, 16, 43, 76, 108, 84, 60, 26, 99, 77, 76, 17, 61, 23, 54, 68, 36, 61, 50, 61, 65, 83, 38, 29, 63, 59, 77, 49, 11, 94, 91, 86, 57, 66, 31, 95, 54, 62, 65, 75, 101, 53, 15, 17, 98, 80, 94, 34, 53, 93, 88, 67, 48, 103, 82, 68, 61, 15, 38, 67, 55, 21, 43, 30, 69, 80, 96, 73, 100, 109, 45, 84, 22, 20, 72, 50, 88, 43, 102, 79, 92, 33, 37, 38, 39, 87, 71, 70, 23, 56, 18, 45, 77, 76, 43, 89, 18, 7, 6, 17, 66, 55, 37, 46, 52, 19, 92, 60, 50, 92, 47, 37, 74, 59, 95, 73, 66, 80, 103, 22, 58, 61, 75, 41, 31, 28, 72, 83, 31, 30, 84, 55, 78, 86, 57, 64, 73, 100, 52, 97, 35, 44, 101, 66, 54, 45, 81, 93, 65, 48, 75, 60, 93, 34, 91, 89, 52, 97, 56, 47, 83, 76, 92, 95, 61, 27, 83, 83, 116, 93, 52, 79, 105, 78, 33, 101, 77, 65, 77, 87, 38, 37, 97, 38, 74, 71, 43, 29, 92, 13, 51, 60, 35, 41, 95, 57, 90, 52, 104, 61, 38, 105, 100, 30, 50, 80, 38, 90, 22, 49, 57, 55, 44, 74
              |12, 35, 28, 76, 2, 35, 51, 14, 29, 37, 46, 12, 4, 59, 32, 45, 32, 40, 12, 49, 54, 36, 31, 38, 28, 21, 59, 42, 20, 32, 32, 69, 23, 54, 45, 51, 19, 21, 50, 39, 29, 46, 54, 53, 55, 46, 16, 76, 37, 43, 23, 64, 30, 43, 19, 40, 25, 26, 20, 44, 28, 64, 17, 35, 27, 38, 20, 74, 25, 61, 33, 61, 33, 63, 36, 52, 36, 24, 27, 66, 63, 63, 36, 39, 30, 32, 30, 55, 29, 20, 66, 37, 52, 61, 56, 39, 21, 44, 48, 44, 6, 34, 47, 72, 6, 25, 52, 28, 62, 52, 27, 40, 21, 43, 58, 40, 66, 30, 81, 62, 25, 46, 41, 48, 37, 55, 65, 11, 60, 62, 55, 55, 61, 56, 21, 55, 58, 24, 38, 60, 42, 40, 51, 49, 46, 30, 9, 43, 29, 54, 79, 41, 45, 57, 48, 65, 72, 28, 40, 37, 24, 7, 34, 64, 59, 25, 52, 60, 21, 24, 27, 31, 20, 17, 34, 17, 47, 23, 36, 43, 71, 33, 54, 50, 57, 40, 14, 56, 19, 12, 16, 39, 64, 24, 65, 47, 20, 25, 52, 14, 58, 71, 22, 37, 64, 50, 19, 10, 30, 24, 64, 31, 69, 63, 35, 59, 49, 73, 43, 41, 72, 69, 71, 47, 66, 46, 22, 25, 54, 35, 17, 42, 61, 50, 30, 19, 19, 28, 38, 36, 52, 43, 19, 62, 34, 26, 56, 22, 44, 40, 33, 35, 39, 31, 74, 42, 13, 55, 61, 24, 36, 67, 23, 52, 64, 46, 26, 62, 42, 26, 52, 29, 25, 29, 58, 46, 6, 34, 64, 40, 39, 25, 35, 72, 54, 25, 54, 66, 57, 66, 18, 36, 41, 58, 53, 54, 5, 16, 22, 24
              |14, 25, 37, 89, 15, 24, 63, 6, 42, 46, 47, 15, 16, 72, 35, 41, 38, 31, 9, 54, 53, 46, 37, 51, 41, 15, 59, 39, 31, 31, 37, 81, 35, 55, 57, 61, 11, 21, 62, 49, 38, 56, 63, 62, 65, 56, 28, 88, 32, 44, 25, 76, 36, 51, 30, 38, 36, 38, 13, 49, 17, 74, 5, 47, 37, 50, 33, 85, 32, 72, 35, 64, 37, 76, 48, 57, 48, 16, 33, 76, 75, 76, 27, 34, 27, 25, 38, 62, 41, 18, 74, 26, 64, 60, 65, 50, 17, 46, 61, 45, 8, 22, 43, 84, 17, 13, 65, 24, 72, 50, 15, 53, 20, 55, 60, 44, 78, 32, 92, 74, 30, 53, 53, 61, 50, 67, 75, 24, 67, 69, 64, 67, 72, 66, 33, 65, 69, 12, 30, 69, 53, 52, 64, 51, 42, 18, 6, 51, 41, 52, 91, 52, 36, 70, 54, 73, 82, 31, 41, 44, 13, 18, 37, 75, 68, 29, 62, 70, 29, 34, 25, 28, 29, 25, 37, 30, 48, 19, 24, 55, 82, 32, 62, 56, 60, 46, 6, 68, 27, 23, 28, 46, 75, 13, 77, 56, 32, 35, 65, 26, 68, 84, 9, 25, 74, 59, 32, 3, 41, 22, 62, 33, 81, 76, 34, 68, 60, 84, 54, 29, 83, 82, 84, 52, 77, 51, 25, 21, 61, 47, 9, 36, 74, 59, 42, 31, 20, 41, 33, 46, 62, 32, 31, 73, 47, 20, 68, 27, 52, 43, 45, 44, 27, 23, 83, 48, 26, 67, 69, 17, 46, 78, 29, 65, 76, 56, 24, 72, 43, 37, 65, 40, 21, 32, 69, 49, 13, 47, 74, 52, 39, 37, 30, 83, 61, 13, 65, 76, 65, 65, 13, 46, 52, 69, 62, 66, 8, 8, 19, 33
              |54, 74, 16, 60, 41, 54, 49, 54, 45, 68, 25, 35, 38, 60, 17, 37, 12, 80, 41, 11, 31, 13, 13, 45, 32, 40, 31, 34, 51, 27, 14, 62, 30, 25, 56, 17, 60, 63, 34, 64, 61, 15, 14, 17, 23, 17, 39, 60, 80, 21, 64, 76, 13, 75, 26, 82, 55, 49, 61, 9, 66, 85, 50, 54, 55, 46, 42, 43, 18, 38, 73, 23, 72, 50, 30, 13, 23, 43, 17, 88, 47, 52, 50, 82, 73, 74, 66, 13, 27, 63, 91, 75, 46, 37, 82, 60, 63, 18, 46, 25, 42, 62, 39, 51, 36, 53, 50, 70, 30, 35, 55, 43, 63, 34, 24, 78, 76, 71, 51, 52, 20, 78, 38, 46, 48, 59, 84, 37, 18, 20, 81, 64, 78, 25, 36, 77, 72, 58, 46, 87, 66, 52, 46, 22, 40, 59, 44, 6, 27, 37, 59, 63, 85, 58, 84, 93, 39, 69, 22, 5, 62, 36, 73, 35, 85, 64, 76, 26, 22, 22, 33, 74, 55, 54, 16, 40, 23, 37, 69, 60, 38, 75, 13, 9, 21, 4, 54, 41, 23, 31, 36, 3, 76, 52, 40, 76, 30, 21, 58, 43, 78, 60, 56, 72, 86, 12, 42, 49, 58, 34, 42, 21, 59, 67, 28, 23, 68, 47, 62, 77, 47, 52, 60, 84, 42, 81, 25, 37, 85, 49, 44, 44, 66, 76, 48, 31, 61, 43, 81, 18, 74, 80, 36, 81, 40, 41, 67, 61, 75, 80, 44, 10, 74, 72, 99, 77, 36, 63, 89, 66, 16, 85, 61, 50, 63, 70, 31, 30, 82, 22, 58, 55, 36, 21, 75, 15, 38, 43, 30, 26, 81, 40, 78, 44, 88, 53, 27, 88, 83, 42, 40, 64, 22, 74, 14, 36, 44, 45, 36, 58
              |1, 27, 38, 82, 12, 38, 55, 10, 32, 32, 56, 22, 15, 63, 43, 53, 43, 32, 19, 60, 64, 46, 42, 42, 35, 28, 69, 51, 19, 42, 43, 73, 31, 64, 47, 61, 13, 10, 58, 36, 25, 56, 65, 63, 64, 56, 21, 82, 27, 53, 12, 64, 41, 37, 29, 29, 23, 27, 12, 55, 22, 61, 19, 36, 25, 42, 24, 83, 36, 69, 22, 71, 23, 69, 43, 63, 45, 30, 38, 62, 69, 69, 41, 29, 20, 23, 24, 65, 37, 9, 61, 30, 57, 71, 51, 38, 11, 54, 54, 54, 14, 35, 55, 79, 17, 27, 56, 17, 71, 61, 28, 45, 10, 50, 68, 31, 66, 20, 89, 67, 36, 39, 47, 53, 40, 57, 62, 19, 71, 72, 50, 56, 59, 65, 27, 52, 57, 23, 44, 55, 40, 42, 57, 60, 54, 31, 15, 53, 37, 63, 86, 40, 37, 61, 40, 59, 81, 18, 50, 48, 20, 17, 24, 73, 54, 16, 49, 70, 31, 34, 36, 20, 16, 12, 45, 23, 58, 31, 33, 43, 81, 22, 65, 61, 68, 51, 10, 63, 30, 23, 23, 50, 63, 26, 73, 42, 28, 35, 55, 18, 55, 76, 20, 33, 60, 60, 23, 11, 28, 33, 73, 41, 74, 65, 44, 69, 48, 81, 42, 35, 79, 76, 76, 39, 74, 38, 33, 33, 48, 37, 23, 49, 63, 46, 32, 27, 8, 32, 28, 45, 49, 37, 25, 60, 39, 33, 57, 14, 38, 30, 36, 45, 34, 23, 69, 34, 21, 57, 55, 16, 46, 65, 15, 56, 67, 43, 35, 72, 31, 36, 55, 28, 33, 40, 56, 57, 16, 38, 74, 49, 29, 29, 25, 81, 47, 27, 63, 62, 52, 76, 25, 32, 50, 57, 64, 62, 11, 21, 30, 19
              |40, 64, 13, 48, 28, 57, 27, 44, 20, 44, 45, 30, 25, 38, 30, 52, 24, 70, 36, 36, 52, 13, 24, 20, 7, 41, 55, 49, 28, 38, 27, 44, 8, 48, 31, 25, 49, 47, 21, 38, 37, 20, 31, 27, 27, 19, 18, 48, 65, 41, 46, 51, 23, 50, 12, 65, 31, 25, 49, 33, 57, 59, 44, 28, 31, 21, 19, 45, 20, 31, 53, 49, 50, 35, 7, 39, 7, 45, 23, 63, 34, 36, 56, 67, 57, 61, 43, 33, 1, 48, 65, 66, 26, 60, 57, 34, 49, 39, 24, 44, 33, 61, 55, 43, 24, 51, 28, 55, 33, 55, 53, 19, 47, 15, 49, 56, 51, 52, 51, 35, 25, 54, 15, 24, 23, 35, 59, 19, 39, 40, 55, 39, 52, 28, 13, 51, 47, 53, 54, 61, 40, 26, 26, 44, 55, 57, 36, 22, 1, 57, 50, 37, 75, 36, 60, 67, 43, 49, 39, 23, 54, 23, 51, 35, 60, 44, 50, 32, 16, 10, 39, 57, 33, 34, 30, 17, 44, 40, 65, 34, 42, 58, 32, 35, 46, 27, 44, 27, 19, 19, 16, 24, 51, 50, 35, 50, 10, 10, 34, 22, 53, 45, 50, 66, 61, 26, 19, 40, 34, 38, 64, 33, 42, 45, 41, 32, 42, 43, 36, 70, 42, 41, 45, 60, 36, 57, 29, 41, 59, 24, 42, 55, 43, 51, 23, 11, 45, 17, 66, 9, 48, 73, 14, 55, 14, 45, 42, 41, 51, 58, 19, 16, 68, 60, 73, 53, 17, 39, 63, 53, 10, 59, 41, 28, 42, 44, 37, 34, 62, 7, 34, 30, 40, 31, 49, 38, 29, 18, 37, 11, 62, 15, 63, 43, 63, 51, 25, 63, 58, 65, 39, 39, 12, 48, 29, 24, 34, 41, 39, 36
              |12, 16, 46, 95, 21, 29, 68, 5, 45, 44, 56, 25, 23, 76, 45, 50, 48, 21, 19, 64, 63, 55, 47, 55, 47, 25, 69, 48, 33, 41, 47, 86, 42, 65, 60, 70, 1, 16, 69, 49, 37, 65, 72, 71, 73, 65, 33, 94, 22, 54, 20, 77, 46, 48, 38, 29, 36, 41, 4, 59, 9, 74, 13, 49, 38, 55, 37, 93, 41, 80, 29, 74, 32, 82, 55, 67, 55, 25, 43, 74, 81, 81, 33, 24, 18, 15, 35, 72, 48, 12, 72, 18, 70, 70, 63, 51, 9, 56, 66, 54, 17, 23, 52, 91, 25, 18, 69, 15, 81, 59, 18, 58, 14, 62, 70, 38, 80, 26, 100, 80, 40, 50, 59, 66, 53, 71, 74, 30, 77, 79, 62, 70, 72, 75, 39, 64, 70, 12, 38, 66, 53, 56, 69, 61, 50, 19, 16, 60, 48, 61, 98, 53, 26, 74, 49, 70, 91, 26, 51, 54, 7, 26, 32, 83, 65, 25, 61, 79, 38, 42, 34, 20, 29, 25, 47, 35, 58, 28, 20, 57, 90, 24, 72, 66, 70, 56, 5, 75, 36, 31, 34, 56, 76, 18, 84, 53, 39, 43, 68, 30, 67, 89, 9, 20, 72, 68, 36, 10, 41, 31, 71, 43, 86, 79, 43, 77, 61, 92, 55, 22, 91, 88, 89, 47, 85, 47, 35, 30, 58, 51, 18, 43, 77, 58, 45, 38, 15, 45, 23, 54, 61, 24, 37, 72, 52, 29, 70, 25, 49, 36, 49, 53, 21, 13, 80, 44, 32, 70, 66, 7, 55, 77, 26, 69, 80, 55, 34, 81, 36, 45, 68, 41, 31, 42, 69, 59, 21, 51, 83, 59, 31, 42, 20, 91, 56, 18, 73, 74, 63, 74, 22, 45, 60, 70, 71, 73, 15, 17, 28, 32
              |25, 24, 43, 98, 26, 13, 74, 16, 53, 58, 44, 21, 27, 83, 37, 36, 42, 31, 15, 56, 50, 52, 40, 62, 51, 13, 56, 34, 43, 30, 39, 92, 45, 53, 69, 67, 18, 31, 72, 61, 50, 62, 67, 68, 71, 63, 39, 98, 37, 43, 35, 88, 40, 63, 38, 45, 48, 50, 21, 51, 17, 87, 7, 59, 50, 62, 44, 92, 37, 81, 45, 64, 47, 86, 57, 58, 56, 11, 37, 88, 85, 86, 17, 39, 34, 29, 49, 66, 50, 28, 86, 23, 75, 56, 77, 62, 25, 46, 72, 42, 18, 10, 37, 93, 27, 1, 75, 31, 79, 45, 3, 64, 30, 65, 59, 54, 90, 42, 100, 85, 34, 65, 64, 72, 61, 79, 87, 35, 71, 73, 76, 79, 84, 73, 44, 77, 81, 6, 22, 81, 65, 64, 75, 50, 35, 7, 15, 56, 50, 47, 101, 65, 35, 81, 65, 85, 89, 41, 40, 48, 13, 28, 48, 82, 79, 40, 74, 76, 36, 42, 23, 36, 41, 37, 39, 41, 47, 17, 16, 67, 88, 40, 67, 58, 60, 49, 16, 78, 33, 32, 39, 50, 87, 2, 85, 67, 42, 42, 77, 38, 80, 94, 7, 19, 86, 64, 43, 15, 53, 20, 57, 34, 92, 87, 31, 74, 73, 93, 66, 24, 92, 91, 94, 63, 86, 62, 28, 17, 73, 59, 9, 28, 85, 71, 54, 41, 30, 52, 38, 54, 74, 28, 42, 85, 58, 15, 80, 39, 64, 52, 57, 49, 22, 25, 95, 59, 37, 79, 81, 22, 53, 90, 41, 75, 87, 68, 23, 79, 52, 45, 77, 52, 19, 34, 81, 49, 22, 58, 81, 61, 48, 49, 35, 91, 72, 1, 73, 88, 77, 60, 13, 58, 60, 81, 67, 75, 19, 9, 17, 45
              |5, 22, 41, 88, 15, 33, 61, 4, 38, 37, 56, 22, 18, 69, 43, 51, 44, 27, 18, 61, 63, 50, 43, 48, 40, 25, 68, 49, 25, 41, 44, 79, 35, 64, 53, 65, 7, 11, 63, 42, 30, 59, 68, 66, 68, 60, 26, 87, 24, 53, 15, 70, 42, 42, 32, 29, 29, 33, 6, 56, 16, 67, 15, 42, 31, 47, 30, 87, 38, 74, 25, 72, 27, 75, 48, 64, 49, 26, 39, 68, 75, 74, 37, 26, 18, 19, 29, 68, 42, 9, 66, 25, 63, 70, 57, 44, 8, 54, 59, 54, 14, 29, 53, 84, 20, 22, 62, 15, 75, 60, 23, 51, 10, 55, 68, 34, 72, 22, 94, 73, 37, 44, 52, 59, 46, 63, 68, 23, 73, 75, 55, 62, 65, 69, 32, 58, 63, 17, 40, 60, 46, 48, 62, 60, 52, 25, 13, 56, 42, 61, 91, 46, 32, 67, 44, 64, 85, 21, 50, 50, 14, 20, 28, 77, 59, 20, 55, 73, 34, 37, 34, 19, 22, 18, 45, 28, 57, 29, 27, 49, 85, 22, 67, 62, 68, 53, 4, 68, 32, 25, 28, 52, 69, 22, 78, 47, 33, 38, 61, 23, 61, 82, 15, 27, 66, 63, 29, 8, 34, 31, 72, 41, 79, 71, 43, 72, 54, 86, 48, 29, 84, 81, 82, 43, 79, 42, 33, 30, 52, 43, 19, 46, 69, 51, 38, 32, 10, 38, 25, 49, 54, 31, 30, 65, 45, 30, 63, 18, 43, 33, 42, 48, 28, 18, 74, 39, 25, 63, 61, 11, 49, 70, 20, 62, 73, 48, 34, 75, 33, 39, 61, 34, 31, 40, 62, 57, 17, 44, 78, 53, 30, 35, 22, 85, 51, 22, 67, 68, 57, 74, 22, 38, 54, 63, 66, 66, 11, 18, 28, 25
              |68, 79, 41, 89, 57, 49, 79, 64, 71, 91, 11, 46, 55, 89, 27, 22, 30, 86, 49, 20, 5, 42, 30, 74, 60, 43, 1, 22, 73, 26, 28, 92, 56, 5, 84, 46, 69, 77, 65, 89, 83, 45, 38, 44, 50, 47, 61, 89, 90, 15, 80, 105, 32, 98, 49, 96, 77, 74, 71, 21, 72, 112, 55, 80, 79, 74, 66, 68, 36, 67, 90, 16, 90, 80, 59, 19, 53, 44, 33, 115, 76, 82, 43, 92, 85, 82, 86, 35, 54, 75, 117, 78, 76, 7, 108, 86, 75, 15, 76, 13, 53, 59, 21, 80, 53, 54, 80, 82, 57, 12, 55, 72, 77, 64, 9, 97, 105, 87, 76, 83, 33, 101, 67, 76, 76, 88, 112, 58, 35, 37, 106, 93, 106, 52, 61, 103, 100, 61, 37, 112, 91, 80, 76, 9, 24, 59, 54, 36, 54, 13, 87, 89, 90, 88, 105, 118, 64, 86, 17, 31, 67, 53, 91, 62, 111, 82, 102, 52, 43, 46, 33, 86, 75, 73, 25, 63, 10, 39, 69, 87, 62, 89, 37, 23, 13, 27, 64, 71, 42, 50, 58, 30, 105, 53, 68, 100, 54, 45, 87, 64, 105, 90, 61, 73, 113, 39, 65, 59, 82, 36, 12, 26, 89, 97, 24, 49, 95, 74, 88, 79, 75, 81, 90, 104, 70, 102, 35, 38, 108, 76, 49, 31, 95, 101, 74, 55, 76, 69, 91, 47, 100, 82, 60, 108, 68, 40, 96, 79, 98, 97, 72, 39, 76, 79, 125, 98, 58, 92, 114, 75, 46, 113, 80, 80, 93, 96, 34, 56, 99, 48, 87, 79, 37, 28, 103, 15, 52, 71, 54, 55, 96, 66, 88, 71, 110, 54, 56, 115, 109, 12, 45, 88, 52, 102, 40, 66, 57, 50, 39, 79
              |44, 68, 12, 47, 31, 59, 29, 48, 24, 49, 43, 32, 29, 39, 28, 51, 22, 74, 38, 33, 50, 9, 23, 23, 11, 42, 52, 48, 33, 38, 26, 44, 12, 45, 34, 20, 53, 51, 19, 43, 42, 15, 26, 22, 22, 14, 23, 46, 69, 39, 51, 54, 21, 55, 15, 69, 36, 29, 53, 30, 61, 63, 47, 32, 36, 24, 24, 41, 20, 28, 58, 45, 55, 34, 8, 35, 3, 46, 22, 67, 32, 35, 57, 71, 62, 65, 48, 28, 6, 52, 69, 70, 26, 57, 61, 39, 53, 37, 25, 42, 36, 63, 54, 40, 28, 53, 29, 59, 29, 53, 56, 21, 52, 14, 46, 61, 54, 57, 47, 35, 25, 58, 17, 26, 26, 38, 62, 24, 34, 35, 60, 42, 56, 23, 18, 55, 50, 56, 55, 65, 44, 30, 26, 42, 54, 60, 39, 17, 6, 55, 48, 42, 79, 37, 65, 72, 38, 54, 38, 20, 57, 27, 56, 31, 64, 49, 54, 28, 17, 11, 39, 62, 38, 39, 29, 22, 42, 41, 68, 38, 38, 62, 27, 31, 42, 24, 48, 26, 20, 22, 20, 21, 54, 52, 32, 55, 14, 11, 36, 27, 57, 44, 53, 70, 65, 21, 24, 43, 39, 39, 62, 32, 42, 47, 40, 27, 46, 40, 40, 74, 39, 39, 44, 65, 33, 62, 29, 42, 64, 28, 44, 55, 45, 55, 28, 15, 49, 22, 70, 4, 52, 76, 18, 59, 18, 46, 45, 46, 56, 63, 23, 12, 72, 64, 77, 58, 22, 42, 68, 57, 6, 63, 46, 29, 43, 49, 37, 29, 67, 8, 36, 35, 41, 30, 53, 36, 32, 22, 32, 8, 67, 20, 68, 39, 68, 53, 21, 67, 62, 62, 41, 43, 8, 52, 24, 22, 37, 44, 40, 41
              |65, 91, 55, 30, 59, 95, 15, 73, 32, 43, 87, 68, 59, 6, 72, 94, 66, 93, 72, 75, 94, 52, 66, 24, 38, 79, 96, 91, 45, 80, 69, 15, 43, 89, 17, 54, 77, 67, 33, 33, 44, 52, 63, 56, 51, 50, 46, 29, 84, 82, 64, 15, 65, 46, 52, 78, 42, 37, 75, 73, 85, 31, 79, 28, 40, 24, 41, 52, 62, 38, 64, 86, 59, 24, 36, 78, 42, 83, 65, 36, 28, 22, 95, 85, 76, 84, 50, 66, 42, 70, 42, 94, 20, 101, 39, 29, 73, 81, 19, 86, 67, 96, 97, 36, 59, 86, 15, 76, 50, 97, 89, 24, 68, 31, 89, 60, 13, 65, 52, 19, 67, 47, 27, 18, 24, 7, 30, 51, 71, 70, 39, 9, 23, 50, 42, 30, 17, 86, 95, 41, 30, 22, 19, 85, 97, 92, 70, 59, 42, 99, 37, 28, 98, 7, 55, 47, 53, 63, 81, 64, 84, 58, 60, 47, 41, 58, 32, 54, 57, 52, 80, 75, 49, 53, 72, 44, 86, 79, 97, 22, 55, 73, 64, 73, 85, 67, 73, 28, 60, 56, 47, 64, 16, 85, 41, 40, 46, 52, 9, 48, 29, 21, 83, 97, 35, 59, 42, 71, 39, 79, 106, 75, 19, 3, 83, 56, 23, 44, 25, 99, 41, 30, 21, 58, 39, 55, 70, 81, 47, 27, 78, 96, 2, 36, 32, 46, 66, 33, 84, 47, 30, 101, 44, 27, 29, 84, 12, 57, 45, 64, 29, 56, 98, 85, 47, 52, 49, 8, 44, 79, 49, 28, 55, 15, 6, 32, 78, 52, 69, 49, 9, 37, 80, 73, 23, 79, 64, 28, 56, 39, 72, 37, 82, 47, 54, 86, 45, 36, 40, 106, 77, 38, 42, 19, 60, 34, 67, 77, 78, 48
              |91, 117, 62, 12, 81, 109, 38, 97, 60, 80, 85, 83, 79, 38, 75, 97, 68, 122, 89, 68, 90, 54, 70, 50, 55, 93, 89, 95, 74, 86, 72, 28, 60, 83, 52, 43, 102, 96, 32, 71, 78, 46, 50, 44, 38, 44, 69, 13, 115, 82, 94, 57, 69, 85, 66, 112, 74, 66, 101, 69, 110, 73, 98, 61, 73, 51, 66, 22, 70, 23, 98, 75, 94, 22, 47, 69, 48, 97, 71, 78, 21, 23, 107, 116, 107, 112, 85, 53, 54, 98, 85, 119, 34, 95, 81, 65, 100, 78, 38, 86, 87, 114, 99, 11, 78, 104, 37, 105, 31, 95, 107, 46, 98, 40, 80, 97, 54, 98, 16, 26, 74, 87, 43, 39, 54, 44, 72, 72, 55, 53, 80, 50, 65, 36, 63, 72, 60, 106, 104, 83, 69, 54, 35, 81, 101, 111, 90, 55, 54, 97, 5, 66, 127, 38, 95, 89, 25, 96, 82, 63, 107, 77, 95, 26, 83, 91, 73, 36, 68, 62, 89, 106, 80, 82, 75, 67, 83, 91, 118, 60, 28, 105, 51, 65, 75, 65, 97, 27, 71, 72, 67, 62, 58, 103, 20, 81, 63, 62, 45, 72, 71, 21, 104, 120, 77, 49, 67, 93, 73, 89, 100, 80, 23, 44, 88, 39, 64, 14, 63, 123, 13, 14, 21, 97, 19, 94, 79, 93, 89, 57, 95, 103, 44, 77, 62, 64, 95, 59, 116, 51, 71, 126, 65, 69, 51, 96, 54, 88, 84, 101, 56, 58, 122, 113, 89, 91, 70, 49, 86, 105, 52, 70, 87, 37, 36, 72, 87, 32, 105, 59, 45, 69, 92, 78, 65, 75, 82, 53, 35, 43, 107, 61, 113, 17, 95, 104, 34, 78, 82, 99, 92, 74, 44, 62, 48, 29, 87, 95, 90, 80
              |23, 23, 62, 100, 36, 52, 71, 26, 49, 35, 79, 45, 39, 77, 66, 74, 67, 21, 41, 84, 86, 70, 66, 59, 56, 48, 91, 72, 35, 64, 67, 88, 53, 87, 60, 85, 22, 14, 79, 43, 32, 79, 89, 86, 87, 79, 43, 99, 8, 76, 15, 72, 65, 36, 52, 5, 35, 43, 20, 79, 24, 63, 36, 49, 37, 58, 43, 105, 60, 90, 13, 95, 18, 87, 64, 87, 67, 48, 62, 62, 88, 86, 57, 9, 6, 13, 26, 89, 60, 15, 58, 27, 75, 93, 50, 48, 16, 78, 71, 77, 37, 44, 75, 99, 41, 41, 73, 9, 94, 83, 41, 62, 14, 70, 92, 21, 75, 12, 110, 84, 60, 36, 66, 70, 56, 71, 64, 42, 95, 96, 49, 67, 64, 88, 48, 55, 64, 34, 61, 53, 47, 57, 74, 83, 74, 41, 37, 77, 60, 84, 104, 48, 24, 75, 32, 55, 103, 14, 73, 72, 28, 41, 18, 95, 52, 18, 52, 93, 55, 57, 57, 4, 29, 27, 68, 43, 80, 52, 37, 54, 103, 4, 89, 85, 91, 75, 26, 82, 54, 47, 45, 74, 70, 41, 94, 42, 51, 58, 68, 38, 58, 93, 32, 34, 61, 84, 43, 31, 38, 54, 95, 65, 90, 77, 66, 92, 55, 102, 52, 32, 100, 94, 93, 29, 94, 30, 56, 53, 43, 52, 42, 67, 75, 47, 47, 50, 16, 50, 8, 68, 52, 32, 47, 63, 58, 52, 66, 21, 37, 17, 53, 69, 33, 17, 65, 29, 43, 68, 52, 17, 69, 68, 22, 73, 81, 47, 57, 94, 15, 59, 68, 40, 54, 63, 62, 80, 40, 55, 97, 71, 9, 49, 8, 102, 39, 41, 85, 62, 50, 97, 45, 39, 73, 64, 87, 82, 34, 40, 51, 29
              |61, 87, 35, 24, 50, 81, 14, 67, 30, 53, 64, 54, 49, 21, 51, 74, 44, 91, 60, 50, 71, 29, 45, 21, 24, 65, 72, 71, 44, 61, 48, 22, 30, 65, 27, 27, 71, 66, 6, 44, 49, 26, 36, 29, 24, 24, 38, 23, 85, 60, 64, 41, 44, 58, 36, 82, 44, 37, 71, 49, 80, 54, 68, 33, 43, 22, 36, 29, 43, 13, 69, 61, 65, 11, 17, 52, 20, 69, 45, 59, 10, 12, 80, 86, 77, 82, 56, 39, 25, 68, 64, 89, 8, 77, 58, 38, 70, 57, 11, 64, 57, 85, 76, 20, 48, 75, 13, 75, 24, 74, 77, 17, 67, 10, 64, 69, 40, 68, 33, 12, 48, 61, 13, 12, 25, 23, 54, 42, 44, 43, 57, 30, 46, 23, 33, 49, 40, 77, 78, 61, 43, 26, 9, 62, 77, 81, 60, 34, 25, 76, 26, 40, 96, 20, 68, 68, 29, 66, 60, 41, 77, 47, 66, 21, 60, 61, 50, 27, 40, 34, 63, 76, 50, 52, 51, 37, 63, 64, 89, 34, 30, 75, 37, 48, 59, 43, 67, 4, 43, 43, 37, 40, 42, 74, 17, 55, 33, 34, 23, 42, 50, 21, 74, 90, 58, 32, 37, 63, 44, 62, 82, 55, 19, 30, 63, 29, 40, 23, 37, 93, 21, 17, 21, 70, 16, 67, 53, 66, 64, 28, 66, 78, 29, 53, 32, 34, 64, 29, 85, 25, 48, 96, 34, 50, 21, 69, 34, 58, 58, 72, 26, 33, 92, 82, 71, 63, 39, 29, 64, 75, 26, 53, 57, 13, 23, 47, 61, 25, 76, 31, 23, 40, 64, 53, 45, 55, 53, 24, 30, 16, 78, 30, 83, 25, 69, 75, 18, 59, 59, 82, 64, 47, 18, 42, 33, 7, 57, 65, 63, 51
              |66, 90, 30, 35, 53, 77, 33, 69, 42, 67, 51, 52, 51, 41, 41, 63, 35, 95, 59, 34, 56, 21, 36, 36, 31, 61, 56, 60, 54, 52, 38, 40, 34, 49, 45, 9, 74, 73, 15, 59, 62, 12, 17, 10, 4, 10, 44, 35, 91, 47, 72, 61, 35, 73, 36, 91, 56, 48, 75, 35, 82, 74, 68, 48, 55, 37, 45, 19, 37, 12, 79, 43, 76, 27, 23, 36, 20, 65, 38, 78, 22, 29, 74, 93, 84, 87, 68, 21, 27, 74, 83, 92, 27, 62, 76, 54, 75, 44, 30, 51, 57, 83, 65, 25, 49, 73, 33, 81, 7, 61, 75, 33, 74, 20, 47, 81, 60, 78, 27, 31, 41, 76, 26, 31, 40, 43, 73, 46, 24, 23, 75, 50, 66, 3, 39, 68, 60, 76, 70, 79, 60, 43, 28, 47, 66, 80, 60, 20, 27, 63, 33, 57, 100, 40, 83, 86, 16, 76, 48, 29, 79, 49, 77, 9, 78, 70, 68, 7, 37, 32, 56, 84, 59, 60, 41, 44, 49, 59, 88, 51, 16, 84, 18, 31, 42, 30, 69, 19, 40, 43, 42, 28, 61, 72, 14, 71, 36, 31, 43, 48, 69, 37, 74, 91, 77, 15, 45, 65, 57, 56, 67, 46, 36, 50, 53, 9, 58, 21, 54, 95, 21, 27, 37, 84, 16, 81, 47, 60, 81, 43, 64, 69, 49, 70, 45, 37, 71, 40, 92, 20, 66, 98, 40, 69, 33, 64, 54, 67, 73, 84, 39, 24, 93, 86, 90, 77, 44, 49, 82, 79, 20, 72, 67, 33, 43, 64, 54, 7, 87, 29, 43, 53, 59, 44, 64, 41, 53, 37, 11, 16, 88, 40, 89, 19, 85, 73, 2, 78, 77, 66, 61, 61, 14, 61, 15, 13, 59, 64, 58, 61
              |38, 62, 12, 50, 25, 55, 29, 42, 20, 43, 44, 28, 23, 40, 28, 51, 22, 68, 34, 36, 51, 14, 23, 21, 7, 38, 54, 48, 27, 37, 26, 46, 6, 48, 32, 26, 47, 45, 23, 38, 36, 21, 32, 28, 28, 20, 16, 50, 63, 39, 44, 52, 21, 50, 10, 63, 30, 24, 47, 33, 55, 59, 42, 28, 31, 22, 18, 47, 19, 33, 52, 48, 49, 38, 9, 39, 9, 42, 21, 63, 36, 38, 54, 65, 55, 59, 42, 34, 2, 46, 65, 64, 28, 59, 57, 35, 47, 38, 26, 43, 31, 59, 53, 45, 22, 49, 30, 53, 35, 53, 51, 20, 46, 17, 49, 55, 53, 50, 53, 37, 24, 53, 17, 26, 23, 37, 59, 17, 40, 40, 56, 41, 53, 29, 12, 51, 48, 50, 52, 61, 40, 27, 28, 43, 53, 55, 34, 22, 2, 55, 52, 37, 73, 38, 59, 67, 44, 48, 38, 23, 52, 21, 50, 37, 60, 43, 50, 34, 14, 8, 37, 56, 32, 33, 29, 16, 43, 37, 63, 35, 44, 56, 32, 35, 46, 26, 42, 30, 17, 17, 14, 24, 52, 47, 37, 50, 8, 8, 35, 21, 53, 47, 48, 64, 61, 27, 18, 38, 33, 36, 63, 31, 45, 46, 39, 33, 42, 45, 36, 68, 44, 43, 47, 60, 38, 57, 27, 39, 59, 24, 39, 53, 44, 51, 23, 9, 43, 17, 64, 10, 49, 71, 12, 56, 15, 43, 44, 40, 50, 57, 19, 15, 66, 58, 74, 53, 16, 40, 63, 51, 11, 60, 39, 30, 43, 44, 35, 35, 60, 5, 35, 29, 38, 29, 50, 38, 27, 18, 38, 13, 60, 15, 61, 45, 63, 49, 27, 63, 58, 64, 37, 38, 14, 49, 30, 27, 32, 39, 36, 35
              |61, 86, 30, 29, 49, 77, 23, 66, 34, 58, 56, 51, 47, 31, 44, 67, 37, 91, 57, 41, 62, 22, 38, 27, 25, 61, 63, 64, 47, 55, 41, 31, 29, 56, 35, 17, 71, 67, 4, 50, 54, 17, 26, 19, 14, 15, 39, 29, 86, 52, 66, 51, 37, 64, 34, 85, 48, 41, 71, 41, 79, 63, 66, 39, 48, 28, 38, 24, 38, 9, 72, 51, 69, 19, 17, 43, 16, 65, 39, 68, 15, 20, 75, 88, 78, 83, 60, 29, 23, 69, 73, 88, 17, 68, 66, 45, 71, 49, 20, 56, 55, 82, 69, 22, 46, 72, 22, 76, 15, 66, 74, 23, 69, 11, 55, 73, 49, 71, 29, 21, 42, 67, 17, 21, 31, 33, 63, 41, 34, 33, 65, 39, 56, 13, 33, 58, 49, 74, 72, 69, 50, 33, 18, 53, 70, 79, 58, 25, 23, 68, 29, 47, 96, 30, 74, 76, 23, 69, 52, 33, 76, 45, 70, 14, 68, 64, 58, 17, 36, 30, 57, 78, 52, 54, 44, 38, 55, 59, 87, 41, 23, 78, 27, 39, 50, 35, 66, 10, 39, 41, 37, 32, 51, 71, 13, 62, 32, 30, 33, 43, 59, 29, 72, 88, 66, 23, 38, 62, 49, 57, 73, 49, 28, 40, 56, 19, 48, 21, 44, 92, 20, 21, 29, 76, 14, 73, 47, 61, 71, 34, 63, 72, 38, 60, 37, 33, 66, 32, 87, 19, 56, 95, 34, 59, 25, 64, 43, 61, 64, 76, 30, 26, 90, 82, 79, 69, 39, 38, 72, 75, 20, 62, 60, 22, 33, 54, 55, 16, 80, 27, 33, 45, 59, 47, 53, 47, 51, 28, 21, 11, 81, 33, 84, 21, 76, 72, 8, 68, 67, 73, 60, 52, 12, 51, 24, 4, 56, 62, 58, 54
              |30, 56, 18, 54, 20, 53, 29, 36, 13, 35, 49, 26, 18, 39, 33, 54, 28, 61, 31, 43, 57, 22, 28, 18, 6, 37, 60, 51, 18, 39, 31, 47, 3, 54, 28, 35, 40, 37, 29, 30, 27, 30, 41, 37, 37, 29, 8, 54, 55, 45, 36, 48, 27, 41, 10, 54, 21, 16, 40, 40, 49, 53, 38, 21, 22, 18, 9, 54, 23, 40, 43, 56, 40, 41, 14, 47, 17, 41, 26, 57, 41, 41, 53, 57, 48, 52, 33, 42, 9, 38, 58, 58, 30, 64, 49, 28, 40, 44, 27, 48, 27, 55, 56, 50, 18, 46, 31, 45, 43, 58, 48, 19, 38, 21, 56, 46, 49, 41, 60, 40, 27, 45, 19, 27, 19, 35, 53, 11, 49, 49, 48, 37, 48, 38, 3, 45, 43, 46, 52, 54, 33, 22, 30, 50, 56, 52, 30, 31, 9, 60, 57, 30, 66, 37, 50, 60, 52, 39, 43, 30, 46, 17, 41, 44, 52, 34, 43, 42, 17, 13, 38, 47, 23, 24, 34, 7, 49, 37, 58, 29, 52, 48, 41, 43, 53, 34, 36, 34, 19, 14, 6, 31, 48, 44, 44, 42, 4, 14, 33, 12, 47, 49, 43, 59, 54, 36, 9, 32, 25, 36, 68, 35, 47, 44, 42, 42, 36, 52, 30, 62, 50, 47, 49, 51, 45, 48, 29, 39, 51, 18, 37, 55, 42, 43, 16, 4, 35, 11, 56, 19, 42, 65, 4, 50, 13, 42, 40, 31, 42, 48, 14, 23, 61, 52, 67, 44, 9, 37, 55, 45, 20, 55, 31, 31, 43, 37, 36, 44, 51, 12, 33, 21, 38, 33, 45, 44, 23, 14, 47, 20, 52, 7, 54, 52, 54, 46, 35, 57, 50, 69, 35, 30, 22, 44, 39, 33, 27, 36, 36, 26
              |35, 60, 39, 54, 32, 68, 26, 43, 9, 17, 70, 43, 32, 31, 54, 74, 50, 63, 45, 64, 78, 42, 50, 15, 22, 53, 81, 70, 14, 59, 52, 42, 24, 75, 14, 52, 46, 36, 37, 9, 14, 48, 59, 54, 52, 46, 20, 53, 53, 66, 33, 31, 48, 23, 31, 48, 11, 7, 45, 61, 55, 32, 50, 3, 9, 14, 15, 64, 44, 48, 35, 77, 30, 42, 27, 67, 33, 57, 47, 35, 44, 41, 69, 54, 45, 53, 21, 61, 28, 39, 37, 63, 30, 86, 28, 6, 42, 65, 26, 69, 40, 67, 76, 55, 33, 58, 27, 45, 56, 78, 60, 19, 38, 30, 77, 33, 33, 35, 68, 39, 48, 26, 24, 25, 11, 25, 33, 25, 67, 68, 27, 23, 28, 52, 19, 23, 24, 56, 70, 32, 11, 11, 30, 71, 76, 63, 42, 51, 28, 81, 59, 9, 67, 29, 33, 39, 64, 33, 64, 51, 54, 32, 31, 55, 31, 28, 22, 57, 38, 34, 57, 44, 18, 22, 55, 18, 70, 54, 67, 10, 64, 43, 60, 64, 74, 55, 43, 39, 39, 32, 22, 52, 30, 57, 53, 22, 25, 35, 22, 20, 26, 47, 53, 66, 33, 54, 16, 42, 9, 55, 89, 56, 44, 32, 62, 57, 16, 59, 9, 68, 57, 50, 47, 35, 52, 31, 49, 57, 31, 7, 51, 73, 30, 22, 6, 25, 35, 11, 54, 38, 21, 70, 21, 30, 17, 59, 23, 26, 23, 37, 11, 44, 67, 54, 45, 28, 24, 23, 34, 48, 39, 34, 24, 27, 35, 16, 55, 57, 41, 33, 22, 6, 56, 53, 25, 65, 37, 13, 61, 34, 43, 14, 52, 60, 35, 58, 48, 35, 29, 91, 51, 11, 38, 25, 57, 41, 38, 50, 53, 17
              |57, 69, 30, 82, 46, 41, 69, 53, 60, 80, 3, 34, 43, 80, 15, 17, 19, 76, 38, 15, 9, 33, 19, 63, 49, 33, 13, 16, 61, 16, 16, 84, 45, 8, 73, 39, 58, 66, 56, 77, 71, 37, 33, 38, 44, 39, 50, 82, 79, 3, 68, 94, 21, 86, 37, 85, 66, 62, 60, 13, 62, 101, 45, 69, 67, 64, 55, 64, 25, 60, 78, 19, 78, 72, 49, 16, 43, 35, 22, 104, 68, 73, 36, 81, 74, 72, 75, 31, 44, 64, 105, 69, 66, 17, 96, 75, 64, 4, 66, 4, 42, 51, 18, 73, 41, 45, 70, 71, 52, 13, 46, 62, 66, 54, 13, 85, 95, 76, 72, 74, 22, 89, 57, 66, 65, 78, 101, 46, 32, 34, 95, 82, 95, 46, 49, 92, 90, 51, 30, 101, 80, 69, 67, 4, 20, 50, 43, 28, 44, 15, 81, 78, 81, 78, 93, 106, 60, 74, 6, 21, 57, 42, 79, 56, 99, 70, 91, 47, 31, 35, 23, 75, 64, 62, 13, 51, 1, 29, 60, 76, 58, 78, 32, 18, 15, 18, 53, 63, 30, 38, 47, 21, 94, 44, 62, 88, 43, 34, 77, 52, 94, 82, 51, 64, 102, 33, 54, 49, 70, 26, 21, 15, 81, 87, 14, 44, 84, 68, 77, 70, 69, 74, 82, 93, 64, 90, 23, 28, 97, 65, 39, 26, 85, 90, 63, 44, 64, 58, 80, 37, 89, 73, 48, 97, 57, 31, 85, 68, 87, 86, 61, 29, 67, 69, 114, 86, 46, 82, 102, 64, 36, 102, 68, 70, 83, 84, 23, 51, 88, 37, 77, 67, 27, 17, 92, 7, 40, 60, 50, 46, 85, 54, 77, 66, 98, 45, 49, 104, 97, 22, 35, 76, 43, 91, 35, 58, 45, 40, 29, 68
              |10, 31, 30, 80, 6, 32, 54, 11, 32, 39, 47, 13, 8, 63, 33, 44, 34, 37, 11, 51, 54, 39, 33, 41, 32, 19, 59, 42, 23, 32, 34, 72, 26, 55, 48, 55, 16, 19, 54, 41, 30, 49, 57, 56, 58, 49, 19, 79, 35, 44, 22, 67, 32, 44, 22, 38, 27, 29, 17, 46, 24, 66, 14, 38, 29, 41, 23, 77, 27, 64, 32, 62, 32, 67, 39, 54, 40, 22, 29, 68, 66, 67, 34, 37, 28, 29, 31, 57, 33, 18, 67, 33, 55, 62, 58, 42, 18, 45, 52, 45, 5, 31, 46, 76, 9, 22, 55, 25, 65, 52, 24, 44, 19, 47, 59, 40, 69, 29, 84, 65, 27, 47, 44, 52, 41, 58, 67, 15, 63, 64, 56, 58, 63, 59, 24, 57, 60, 21, 36, 62, 45, 43, 55, 50, 45, 27, 7, 46, 33, 54, 83, 44, 42, 61, 49, 67, 75, 28, 41, 40, 21, 10, 33, 67, 60, 24, 54, 63, 23, 27, 27, 29, 21, 18, 35, 21, 48, 22, 33, 46, 75, 31, 57, 52, 58, 42, 11, 60, 22, 15, 19, 42, 66, 21, 69, 48, 23, 28, 56, 17, 60, 75, 18, 34, 66, 53, 22, 7, 33, 24, 64, 32, 72, 66, 35, 62, 52, 76, 45, 37, 75, 73, 75, 48, 69, 46, 24, 24, 55, 38, 15, 40, 64, 52, 33, 23, 17, 32, 36, 39, 54, 40, 22, 64, 38, 25, 59, 22, 45, 39, 36, 38, 35, 28, 76, 42, 17, 58, 62, 21, 39, 69, 23, 55, 67, 48, 26, 65, 41, 29, 56, 32, 24, 31, 60, 47, 7, 37, 68, 44, 38, 28, 33, 76, 55, 22, 58, 68, 58, 66, 16, 38, 45, 61, 56, 57, 2, 14, 21, 26
              |52, 61, 34, 90, 43, 31, 74, 47, 62, 79, 9, 30, 40, 85, 17, 6, 24, 68, 33, 26, 13, 39, 23, 66, 52, 26, 19, 4, 60, 11, 20, 90, 47, 17, 76, 48, 51, 61, 63, 77, 70, 45, 43, 48, 53, 47, 50, 90, 72, 10, 64, 98, 25, 85, 39, 79, 65, 63, 54, 23, 54, 102, 38, 70, 67, 67, 55, 74, 27, 68, 74, 30, 75, 79, 54, 27, 49, 26, 24, 105, 76, 80, 25, 74, 68, 65, 73, 41, 47, 59, 106, 60, 72, 20, 96, 76, 58, 14, 71, 7, 38, 41, 8, 81, 39, 36, 75, 65, 61, 9, 37, 66, 61, 60, 23, 82, 98, 72, 82, 81, 22, 88, 62, 71, 68, 83, 102, 45, 43, 45, 95, 86, 97, 55, 51, 93, 92, 43, 19, 101, 81, 72, 72, 15, 9, 40, 37, 36, 47, 11, 90, 79, 72, 83, 91, 106, 70, 70, 9, 28, 49, 40, 76, 66, 99, 67, 91, 57, 33, 38, 16, 69, 62, 59, 17, 51, 11, 22, 51, 78, 68, 72, 43, 29, 26, 26, 47, 70, 31, 38, 47, 29, 97, 35, 71, 88, 45, 37, 81, 52, 95, 89, 43, 55, 103, 43, 54, 43, 70, 19, 21, 14, 87, 92, 8, 54, 85, 78, 79, 61, 78, 82, 89, 90, 73, 88, 21, 20, 96, 68, 32, 15, 90, 90, 64, 45, 60, 60, 73, 43, 90, 64, 49, 99, 61, 22, 89, 64, 86, 82, 63, 35, 58, 61, 114, 84, 46, 86, 102, 57, 42, 104, 65, 75, 89, 85, 17, 60, 83, 40, 81, 67, 20, 17, 94, 18, 37, 63, 60, 52, 80, 56, 70, 75, 97, 36, 58, 105, 97, 24, 28, 76, 50, 93, 45, 65, 41, 33, 22, 66
              |28, 54, 19, 56, 18, 52, 31, 34, 13, 33, 50, 25, 17, 40, 33, 54, 29, 59, 29, 45, 57, 24, 29, 19, 8, 36, 61, 51, 16, 39, 32, 49, 5, 55, 28, 37, 38, 34, 31, 29, 26, 32, 43, 39, 39, 31, 6, 56, 53, 45, 34, 49, 28, 40, 11, 52, 20, 14, 38, 41, 47, 53, 37, 21, 20, 19, 7, 56, 23, 42, 41, 57, 38, 43, 16, 48, 19, 40, 26, 56, 43, 43, 52, 55, 45, 50, 31, 44, 11, 36, 57, 56, 32, 65, 48, 27, 38, 45, 28, 48, 25, 54, 56, 52, 16, 44, 32, 43, 45, 58, 46, 20, 36, 23, 57, 44, 50, 39, 62, 42, 27, 43, 21, 28, 19, 36, 53, 9, 50, 51, 47, 38, 48, 40, 1, 44, 43, 44, 52, 53, 32, 23, 31, 50, 56, 50, 28, 33, 11, 60, 59, 30, 64, 38, 49, 59, 55, 37, 43, 31, 44, 15, 39, 47, 51, 32, 42, 45, 17, 14, 38, 45, 21, 22, 35, 5, 49, 36, 56, 29, 55, 45, 43, 44, 54, 35, 34, 36, 19, 13, 4, 33, 48, 43, 46, 41, 5, 15, 34, 10, 46, 51, 42, 57, 54, 38, 7, 30, 23, 36, 69, 35, 48, 45, 42, 44, 36, 54, 29, 60, 52, 49, 51, 49, 47, 46, 29, 38, 50, 18, 35, 54, 43, 42, 15, 4, 33, 11, 54, 21, 41, 63, 1, 50, 14, 41, 40, 29, 40, 46, 14, 25, 59, 49, 66, 42, 7, 38, 54, 42, 22, 54, 28, 32, 44, 36, 36, 46, 49, 14, 34, 20, 38, 33, 44, 45, 21, 15, 49, 22, 49, 7, 51, 54, 53, 44, 37, 56, 49, 70, 34, 29, 24, 44, 41, 35, 25, 35, 35, 24
              |28, 13, 55, 108, 34, 21, 83, 19, 60, 60, 57, 33, 36, 91, 50, 47, 54, 20, 26, 69, 62, 64, 53, 70, 60, 26, 68, 46, 49, 43, 52, 101, 55, 66, 76, 79, 17, 31, 82, 65, 53, 74, 80, 80, 83, 75, 48, 108, 29, 56, 35, 93, 53, 64, 49, 39, 52, 56, 19, 64, 10, 89, 17, 65, 54, 70, 52, 104, 49, 92, 43, 77, 46, 95, 67, 71, 67, 24, 50, 90, 95, 95, 26, 31, 29, 21, 51, 79, 60, 27, 87, 11, 84, 68, 78, 67, 24, 59, 81, 55, 28, 10, 48, 104, 37, 14, 84, 26, 91, 57, 12, 72, 29, 75, 72, 52, 96, 40, 111, 94, 46, 65, 73, 80, 69, 86, 90, 43, 84, 86, 77, 85, 88, 85, 53, 80, 86, 8, 32, 82, 69, 71, 84, 63, 46, 9, 25, 69, 60, 58, 111, 69, 23, 89, 64, 85, 101, 40, 53, 61, 9, 38, 47, 94, 81, 41, 77, 89, 48, 53, 36, 31, 45, 41, 52, 49, 59, 30, 4, 73, 100, 36, 79, 71, 73, 62, 19, 88, 45, 42, 48, 63, 92, 15, 96, 69, 52, 54, 84, 45, 83, 103, 11, 6, 88, 76, 51, 22, 57, 33, 68, 47, 101, 94, 44, 87, 77, 104, 71, 11, 103, 101, 103, 61, 97, 61, 41, 30, 73, 66, 22, 38, 92, 74, 61, 51, 30, 60, 30, 65, 77, 15, 51, 88, 66, 28, 86, 40, 65, 50, 64, 62, 9, 17, 95, 59, 46, 86, 82, 18, 65, 93, 42, 84, 95, 71, 36, 91, 49, 56, 84, 57, 32, 47, 85, 62, 32, 66, 93, 71, 43, 57, 28, 103, 71, 14, 84, 90, 79, 71, 26, 61, 72, 86, 79, 85, 27, 21, 30, 48
              |34, 53, 56, 73, 39, 72, 46, 43, 29, 4, 84, 52, 41, 48, 68, 84, 65, 53, 51, 82, 92, 61, 65, 36, 41, 60, 96, 81, 22, 71, 67, 59, 42, 90, 32, 72, 43, 29, 59, 13, 12, 68, 79, 74, 73, 66, 34, 73, 41, 80, 25, 39, 64, 4, 47, 33, 17, 23, 41, 77, 50, 30, 53, 24, 17, 35, 30, 86, 59, 69, 21, 94, 15, 62, 48, 85, 53, 63, 61, 30, 65, 61, 74, 42, 35, 44, 10, 81, 47, 34, 27, 57, 51, 99, 18, 19, 36, 80, 46, 82, 46, 67, 86, 75, 43, 60, 47, 36, 77, 91, 62, 40, 31, 51, 93, 14, 42, 22, 89, 58, 61, 6, 45, 46, 32, 42, 31, 37, 87, 87, 17, 37, 31, 73, 36, 22, 32, 56, 77, 22, 16, 31, 50, 86, 86, 64, 47, 69, 47, 93, 79, 18, 57, 47, 12, 26, 85, 21, 77, 68, 51, 42, 16, 77, 21, 19, 19, 78, 52, 51, 66, 33, 20, 23, 70, 33, 84, 62, 64, 25, 86, 30, 79, 81, 91, 72, 43, 60, 53, 45, 37, 70, 38, 60, 74, 9, 42, 52, 40, 31, 25, 65, 53, 62, 28, 74, 30, 44, 14, 64, 102, 69, 62, 46, 74, 78, 23, 80, 22, 62, 77, 70, 65, 13, 73, 10, 60, 65, 14, 28, 56, 81, 45, 14, 26, 41, 30, 31, 41, 57, 19, 63, 36, 30, 38, 66, 35, 20, 4, 19, 32, 62, 62, 47, 35, 7, 37, 38, 22, 42, 58, 35, 18, 47, 51, 14, 65, 78, 23, 51, 40, 18, 65, 67, 29, 81, 45, 34, 82, 55, 27, 33, 41, 81, 16, 60, 69, 30, 18, 104, 57, 10, 58, 31, 77, 62, 43, 54, 62, 16
              |19, 24, 58, 95, 32, 50, 67, 23, 45, 31, 75, 42, 35, 73, 62, 71, 63, 23, 38, 80, 83, 66, 62, 54, 52, 45, 88, 69, 31, 60, 63, 84, 48, 84, 56, 80, 20, 10, 74, 40, 28, 75, 85, 82, 83, 75, 38, 95, 11, 73, 10, 68, 61, 33, 48, 9, 31, 38, 17, 75, 23, 61, 34, 45, 33, 54, 39, 100, 56, 85, 10, 91, 15, 83, 60, 83, 63, 46, 58, 60, 84, 82, 55, 12, 5, 14, 23, 85, 55, 11, 56, 28, 71, 90, 48, 44, 13, 74, 67, 73, 34, 43, 72, 94, 37, 39, 69, 7, 89, 79, 40, 58, 10, 66, 88, 19, 71, 8, 106, 80, 56, 34, 62, 66, 52, 67, 62, 37, 91, 92, 47, 64, 61, 84, 43, 52, 61, 33, 59, 51, 43, 52, 70, 79, 71, 40, 33, 73, 55, 81, 100, 45, 27, 71, 31, 53, 98, 10, 70, 68, 26, 37, 15, 90, 50, 14, 49, 88, 51, 53, 54, 3, 25, 22, 64, 39, 77, 48, 37, 50, 98, 2, 84, 81, 87, 71, 23, 78, 50, 42, 40, 70, 67, 39, 90, 39, 46, 54, 64, 34, 55, 88, 30, 34, 58, 80, 38, 28, 34, 51, 92, 61, 86, 73, 63, 87, 52, 97, 48, 33, 95, 90, 88, 28, 90, 28, 53, 50, 41, 48, 39, 65, 71, 45, 43, 46, 12, 46, 12, 64, 49, 33, 43, 60, 54, 50, 63, 16, 34, 16, 49, 65, 33, 18, 64, 27, 39, 64, 50, 16, 65, 65, 18, 69, 77, 44, 53, 90, 15, 55, 64, 36, 51, 60, 59, 77, 36, 51, 93, 66, 10, 44, 10, 97, 38, 39, 81, 60, 48, 94, 42, 35, 68, 60, 83, 78, 30, 38, 48, 25
              |60, 68, 38, 92, 50, 37, 78, 54, 67, 85, 7, 37, 47, 89, 22, 10, 28, 75, 40, 25, 6, 42, 27, 71, 57, 33, 12, 10, 67, 17, 24, 93, 52, 13, 81, 49, 59, 69, 66, 84, 77, 47, 43, 48, 54, 49, 56, 92, 80, 11, 71, 102, 29, 92, 44, 86, 71, 69, 61, 23, 61, 108, 45, 76, 73, 72, 61, 74, 32, 70, 81, 25, 82, 82, 58, 25, 52, 33, 29, 111, 78, 83, 31, 82, 75, 72, 79, 41, 52, 66, 112, 67, 76, 12, 103, 82, 65, 14, 75, 7, 45, 48, 10, 83, 46, 43, 79, 72, 62, 3, 44, 70, 68, 63, 18, 89, 103, 79, 82, 84, 28, 94, 66, 75, 73, 87, 108, 52, 42, 44, 101, 91, 102, 56, 56, 99, 97, 50, 25, 107, 87, 77, 76, 12, 12, 47, 44, 38, 52, 5, 91, 85, 79, 87, 98, 112, 70, 77, 12, 30, 56, 46, 83, 66, 105, 74, 97, 57, 38, 43, 23, 77, 68, 66, 21, 57, 9, 29, 57, 83, 68, 80, 42, 28, 22, 28, 54, 73, 36, 44, 53, 31, 102, 42, 72, 94, 50, 42, 85, 58, 101, 92, 50, 61, 109, 43, 60, 50, 76, 27, 14, 20, 90, 96, 15, 54, 91, 79, 84, 67, 79, 84, 92, 97, 74, 95, 28, 28, 102, 73, 39, 20, 94, 96, 70, 51, 67, 65, 81, 47, 96, 70, 55, 105, 65, 29, 94, 71, 92, 89, 68, 38, 64, 69, 120, 91, 52, 90, 108, 65, 45, 109, 72, 79, 92, 91, 24, 61, 90, 45, 85, 74, 27, 22, 99, 17, 44, 68, 60, 56, 87, 62, 78, 76, 103, 43, 59, 111, 103, 17, 35, 82, 53, 98, 45, 67, 48, 40, 29, 73
              |65, 79, 33, 78, 53, 51, 69, 62, 63, 85, 13, 42, 50, 79, 21, 27, 23, 86, 47, 9, 14, 32, 23, 64, 51, 43, 12, 26, 66, 26, 21, 82, 48, 6, 75, 35, 67, 74, 54, 81, 76, 34, 27, 33, 39, 36, 55, 78, 88, 13, 76, 95, 25, 91, 42, 93, 71, 66, 69, 11, 72, 103, 54, 72, 72, 65, 59, 57, 30, 56, 86, 9, 85, 69, 49, 8, 43, 44, 27, 107, 65, 71, 46, 90, 82, 81, 81, 24, 45, 72, 109, 79, 65, 18, 100, 78, 72, 10, 66, 14, 50, 61, 28, 68, 48, 55, 69, 79, 46, 20, 56, 63, 74, 53, 5, 92, 95, 83, 65, 72, 28, 94, 57, 66, 67, 78, 103, 51, 24, 26, 99, 83, 97, 41, 53, 95, 91, 61, 40, 104, 83, 71, 66, 6, 30, 60, 51, 25, 45, 22, 76, 81, 90, 78, 99, 110, 53, 81, 16, 21, 67, 48, 86, 51, 103, 77, 94, 41, 36, 38, 33, 83, 69, 68, 19, 56, 10, 39, 71, 79, 51, 86, 26, 12, 4, 18, 62, 60, 35, 44, 51, 21, 95, 54, 57, 93, 47, 37, 77, 58, 97, 79, 61, 74, 105, 28, 58, 57, 75, 36, 23, 23, 78, 87, 24, 38, 86, 63, 80, 80, 64, 70, 79, 99, 59, 96, 31, 38, 101, 68, 48, 36, 85, 94, 66, 48, 72, 61, 89, 37, 92, 83, 52, 100, 59, 41, 87, 74, 92, 93, 63, 29, 77, 78, 117, 92, 51, 83, 106, 73, 36, 104, 75, 69, 82, 88, 32, 45, 95, 39, 77, 72, 37, 24, 94, 7, 48, 62, 43, 45, 93, 58, 86, 60, 104, 55, 45, 107, 101, 23, 44, 80, 42, 93, 29, 55, 53, 49, 38, 73
              |15, 36, 25, 76, 4, 33, 51, 16, 30, 40, 43, 9, 3, 60, 29, 42, 29, 42, 10, 46, 51, 34, 28, 38, 28, 18, 56, 39, 22, 29, 29, 69, 22, 51, 46, 49, 21, 24, 49, 41, 31, 44, 52, 51, 53, 44, 16, 75, 40, 40, 26, 66, 27, 46, 17, 43, 27, 28, 22, 41, 29, 66, 17, 36, 29, 38, 21, 72, 22, 60, 36, 57, 36, 63, 35, 49, 35, 22, 24, 68, 62, 63, 34, 42, 33, 35, 33, 52, 28, 23, 68, 38, 52, 58, 59, 41, 24, 41, 48, 41, 5, 34, 44, 71, 4, 24, 52, 30, 60, 49, 26, 40, 24, 42, 55, 43, 67, 33, 79, 61, 22, 49, 40, 48, 38, 55, 67, 11, 57, 59, 57, 56, 63, 54, 21, 57, 59, 25, 35, 63, 44, 41, 51, 46, 43, 30, 8, 40, 28, 51, 78, 43, 47, 58, 51, 68, 70, 32, 37, 34, 25, 5, 37, 62, 61, 28, 55, 58, 18, 22, 24, 34, 23, 20, 31, 18, 44, 20, 37, 45, 69, 36, 52, 47, 54, 37, 16, 55, 16, 10, 16, 36, 65, 23, 64, 49, 19, 22, 53, 15, 60, 71, 22, 38, 66, 48, 20, 11, 33, 21, 61, 28, 68, 64, 32, 56, 51, 72, 44, 42, 70, 69, 71, 50, 65, 49, 19, 22, 57, 36, 16, 39, 62, 52, 31, 18, 22, 29, 41, 34, 54, 45, 19, 64, 34, 24, 57, 25, 47, 43, 33, 32, 40, 33, 77, 45, 13, 56, 64, 26, 34, 69, 26, 52, 64, 48, 23, 60, 45, 24, 53, 31, 22, 26, 59, 43, 3, 34, 62, 39, 43, 25, 38, 71, 57, 24, 52, 68, 59, 63, 16, 38, 40, 60, 51, 53, 6, 15, 19, 27
              |51, 74, 57, 54, 50, 86, 30, 60, 27, 22, 89, 62, 51, 28, 73, 93, 68, 75, 64, 82, 97, 59, 68, 26, 39, 72, 100, 90, 32, 79, 71, 39, 43, 93, 17, 66, 62, 49, 47, 14, 26, 62, 74, 68, 65, 60, 39, 53, 64, 85, 46, 16, 67, 22, 50, 56, 27, 26, 60, 79, 70, 13, 68, 19, 25, 26, 34, 72, 63, 56, 43, 94, 38, 45, 42, 85, 49, 76, 65, 17, 49, 43, 88, 65, 57, 66, 30, 77, 45, 53, 21, 78, 36, 104, 15, 13, 56, 84, 32, 88, 58, 84, 95, 58, 52, 76, 31, 57, 67, 97, 78, 30, 51, 42, 95, 37, 19, 45, 74, 40, 67, 23, 36, 31, 23, 22, 14, 44, 82, 82, 14, 16, 9, 64, 38, 6, 9, 73, 89, 18, 10, 20, 35, 89, 95, 81, 61, 67, 45, 100, 61, 10, 79, 28, 31, 24, 72, 43, 83, 69, 70, 51, 38, 65, 17, 40, 7, 69, 56, 52, 76, 56, 34, 38, 74, 38, 89, 74, 83, 11, 74, 53, 75, 81, 92, 72, 60, 46, 58, 51, 42, 70, 14, 75, 60, 16, 44, 53, 21, 39, 7, 46, 70, 82, 15, 69, 35, 60, 22, 74, 108, 75, 43, 24, 81, 70, 4, 65, 10, 83, 62, 53, 46, 34, 59, 31, 68, 76, 23, 22, 69, 92, 23, 12, 24, 44, 49, 29, 64, 54, 5, 84, 40, 10, 32, 78, 13, 39, 21, 42, 27, 61, 82, 68, 28, 29, 43, 17, 21, 62, 55, 15, 37, 31, 30, 9, 74, 68, 46, 51, 21, 23, 75, 72, 6, 83, 56, 28, 72, 48, 51, 33, 63, 67, 29, 76, 59, 17, 16, 109, 70, 18, 52, 8, 72, 50, 57, 68, 73, 31
              |78, 104, 48, 13, 67, 96, 29, 84, 48, 70, 73, 70, 66, 31, 62, 85, 55, 109, 76, 56, 78, 41, 57, 39, 42, 80, 78, 82, 62, 73, 59, 25, 47, 71, 43, 31, 89, 84, 19, 61, 67, 33, 39, 32, 26, 31, 56, 14, 102, 69, 82, 52, 56, 75, 52, 100, 62, 55, 88, 57, 97, 67, 85, 51, 61, 40, 54, 16, 56, 10, 87, 64, 83, 13, 34, 58, 34, 84, 58, 72, 9, 15, 94, 104, 95, 100, 74, 42, 41, 86, 78, 106, 23, 84, 73, 55, 88, 66, 28, 73, 73, 101, 87, 3, 64, 91, 27, 93, 20, 83, 93, 35, 85, 27, 69, 86, 49, 86, 16, 18, 61, 78, 31, 28, 43, 36, 66, 59, 45, 43, 72, 43, 59, 24, 50, 64, 53, 93, 91, 76, 60, 43, 24, 69, 88, 97, 76, 42, 41, 85, 11, 57, 114, 31, 85, 82, 18, 84, 69, 50, 94, 64, 84, 15, 75, 79, 65, 25, 55, 49, 76, 94, 68, 70, 62, 54, 71, 78, 105, 50, 21, 93, 40, 53, 64, 52, 84, 14, 58, 59, 54, 49, 53, 90, 8, 72, 50, 48, 37, 59, 64, 19, 90, 107, 71, 37, 55, 80, 62, 76, 89, 67, 19, 39, 75, 28, 55, 7, 53, 110, 4, 7, 19, 87, 6, 84, 66, 79, 80, 46, 81, 90, 39, 69, 50, 50, 82, 47, 103, 38, 63, 113, 52, 63, 39, 83, 47, 76, 75, 90, 44, 44, 108, 100, 83, 81, 57, 42, 79, 93, 38, 65, 75, 27, 31, 63, 74, 22, 94, 46, 37, 58, 78, 65, 58, 63, 69, 42, 25, 30, 96, 48, 101, 10, 86, 91, 21, 72, 74, 88, 79, 64, 30, 55, 36, 16, 74, 81, 77, 69
              |57, 79, 18, 49, 44, 62, 40, 59, 41, 65, 36, 40, 41, 50, 26, 48, 20, 85, 46, 20, 41, 9, 21, 39, 28, 47, 42, 45, 49, 37, 23, 52, 28, 35, 49, 7, 64, 65, 24, 59, 58, 4, 10, 8, 12, 6, 38, 49, 83, 32, 65, 68, 21, 72, 27, 84, 52, 46, 65, 20, 71, 78, 56, 48, 53, 39, 40, 33, 23, 27, 73, 31, 71, 40, 23, 22, 17, 51, 23, 82, 36, 41, 59, 84, 75, 77, 64, 12, 22, 65, 85, 80, 36, 48, 77, 55, 66, 29, 37, 36, 46, 69, 50, 40, 39, 60, 41, 73, 20, 46, 62, 36, 66, 25, 34, 77, 67, 72, 41, 42, 27, 75, 30, 38, 42, 50, 78, 38, 18, 18, 76, 56, 71, 14, 34, 71, 65, 64, 55, 81, 61, 45, 37, 32, 51, 66, 49, 5, 22, 48, 48, 58, 90, 49, 81, 88, 30, 69, 32, 14, 67, 39, 72, 24, 80, 64, 70, 16, 25, 22, 41, 76, 54, 54, 26, 38, 34, 45, 76, 54, 29, 77, 10, 18, 30, 15, 59, 31, 27, 33, 35, 12, 68, 59, 29, 71, 29, 21, 49, 42, 72, 50, 62, 78, 80, 5, 40, 54, 55, 42, 52, 31, 48, 58, 38, 14, 61, 36, 56, 83, 36, 41, 50, 82, 31, 79, 33, 46, 81, 44, 51, 54, 57, 71, 44, 30, 63, 39, 83, 12, 68, 86, 34, 74, 34, 49, 60, 61, 72, 79, 39, 11, 81, 76, 93, 75, 36, 55, 84, 69, 11, 78, 61, 41, 53, 65, 40, 20, 82, 20, 49, 51, 44, 30, 68, 26, 42, 38, 21, 17, 82, 37, 81, 34, 84, 60, 16, 82, 78, 52, 47, 60, 13, 66, 8, 25, 48, 51, 44, 57
              |28, 29, 66, 101, 41, 58, 72, 32, 51, 33, 85, 51, 44, 77, 72, 80, 72, 26, 47, 89, 92, 74, 71, 60, 59, 54, 97, 78, 37, 70, 72, 88, 56, 93, 60, 89, 29, 19, 81, 43, 33, 83, 93, 90, 91, 83, 46, 100, 13, 82, 18, 70, 70, 33, 57, 2, 37, 44, 26, 84, 30, 60, 42, 50, 38, 59, 46, 107, 65, 92, 12, 100, 17, 89, 67, 92, 71, 55, 67, 59, 90, 88, 63, 12, 12, 19, 26, 94, 63, 21, 54, 33, 77, 99, 47, 48, 22, 83, 72, 83, 43, 50, 81, 100, 46, 47, 74, 15, 97, 89, 48, 64, 19, 73, 97, 18, 73, 13, 113, 85, 65, 33, 68, 71, 57, 71, 62, 46, 100, 101, 47, 67, 62, 91, 51, 53, 63, 41, 68, 50, 46, 57, 76, 89, 80, 47, 42, 82, 63, 90, 106, 48, 28, 76, 28, 51, 106, 15, 79, 77, 34, 46, 16, 98, 49, 20, 50, 96, 60, 62, 63, 10, 31, 30, 74, 46, 86, 58, 43, 54, 106, 7, 93, 90, 97, 80, 32, 84, 59, 51, 49, 79, 69, 48, 97, 40, 55, 63, 69, 42, 56, 93, 39, 40, 57, 88, 45, 37, 38, 60, 101, 70, 91, 76, 72, 95, 54, 104, 51, 37, 102, 96, 93, 25, 97, 26, 62, 59, 39, 53, 48, 73, 75, 45, 49, 54, 21, 52, 12, 72, 51, 37, 50, 61, 60, 59, 65, 23, 34, 13, 55, 74, 38, 24, 61, 26, 47, 68, 48, 24, 73, 65, 24, 74, 81, 46, 63, 97, 10, 63, 69, 41, 60, 69, 60, 86, 45, 57, 101, 74, 4, 51, 13, 104, 35, 47, 89, 59, 47, 103, 51, 38, 76, 62, 91, 85, 40, 47, 57, 30
              |26, 22, 66, 104, 40, 53, 76, 28, 53, 38, 81, 48, 43, 81, 69, 75, 70, 19, 43, 87, 88, 74, 69, 63, 60, 50, 94, 73, 39, 66, 70, 92, 57, 90, 64, 89, 24, 18, 83, 48, 36, 83, 92, 90, 91, 83, 47, 103, 5, 79, 19, 76, 68, 39, 56, 5, 40, 47, 22, 82, 24, 67, 38, 53, 41, 62, 47, 109, 63, 94, 17, 98, 22, 91, 68, 90, 71, 50, 65, 66, 93, 91, 58, 5, 8, 13, 31, 93, 64, 18, 61, 26, 79, 95, 54, 52, 18, 80, 75, 79, 40, 44, 77, 103, 45, 42, 77, 11, 98, 84, 42, 67, 17, 75, 94, 24, 79, 16, 114, 88, 63, 40, 70, 74, 60, 75, 68, 46, 98, 100, 53, 72, 68, 92, 52, 59, 68, 35, 63, 56, 51, 61, 79, 86, 75, 41, 39, 81, 64, 86, 109, 52, 21, 80, 35, 58, 107, 18, 76, 76, 28, 45, 22, 99, 55, 23, 56, 97, 59, 61, 59, 7, 33, 31, 71, 47, 83, 54, 36, 58, 107, 8, 92, 88, 94, 78, 28, 87, 57, 50, 49, 78, 74, 42, 98, 46, 55, 62, 73, 42, 62, 97, 34, 33, 64, 88, 47, 33, 42, 56, 96, 67, 94, 81, 68, 96, 59, 106, 56, 30, 104, 99, 97, 32, 98, 33, 59, 55, 46, 57, 44, 68, 79, 51, 52, 54, 20, 54, 5, 72, 56, 30, 51, 67, 62, 54, 70, 25, 40, 20, 57, 73, 31, 17, 68, 33, 47, 72, 55, 18, 73, 71, 26, 77, 85, 51, 59, 98, 17, 63, 73, 45, 56, 66, 66, 83, 43, 60, 101, 75, 11, 53, 6, 106, 42, 42, 89, 66, 54, 99, 47, 43, 77, 68, 91, 86, 37, 42, 53, 33
              |55, 71, 24, 74, 43, 45, 62, 53, 54, 75, 11, 33, 40, 72, 12, 24, 14, 77, 38, 8, 17, 25, 14, 56, 43, 34, 19, 22, 57, 18, 12, 76, 39, 12, 67, 31, 58, 65, 48, 72, 67, 29, 26, 30, 36, 31, 45, 74, 79, 8, 66, 88, 15, 82, 32, 83, 61, 57, 60, 5, 63, 95, 46, 63, 62, 57, 50, 56, 20, 52, 76, 17, 76, 64, 42, 10, 36, 37, 17, 98, 61, 66, 40, 81, 73, 72, 71, 23, 37, 63, 100, 71, 59, 24, 91, 69, 63, 4, 59, 11, 41, 55, 26, 65, 38, 47, 63, 70, 44, 21, 49, 55, 64, 47, 14, 83, 88, 74, 64, 66, 18, 85, 50, 59, 59, 71, 95, 42, 26, 28, 90, 76, 89, 38, 44, 86, 83, 53, 35, 95, 75, 62, 59, 8, 27, 53, 42, 20, 37, 23, 73, 72, 82, 71, 89, 101, 52, 72, 9, 13, 58, 39, 77, 49, 94, 68, 85, 39, 26, 29, 25, 74, 60, 59, 10, 46, 9, 31, 63, 70, 51, 77, 25, 11, 13, 10, 53, 55, 26, 35, 42, 14, 87, 46, 54, 83, 38, 28, 70, 48, 88, 74, 52, 66, 96, 25, 49, 48, 66, 28, 28, 14, 73, 80, 18, 36, 78, 61, 71, 72, 61, 66, 74, 89, 56, 87, 22, 30, 92, 59, 40, 32, 78, 85, 57, 39, 63, 52, 80, 30, 84, 75, 43, 91, 51, 34, 79, 65, 82, 83, 54, 21, 69, 70, 108, 83, 42, 75, 97, 64, 29, 96, 65, 63, 76, 79, 24, 43, 85, 30, 70, 62, 29, 15, 86, 2, 38, 54, 42, 39, 83, 49, 77, 58, 94, 47, 41, 98, 92, 29, 36, 71, 36, 85, 27, 50, 44, 41, 30, 64
              |52, 70, 16, 65, 39, 49, 53, 51, 46, 68, 20, 31, 36, 63, 12, 32, 8, 77, 37, 9, 26, 16, 9, 48, 34, 36, 28, 29, 50, 22, 9, 66, 31, 21, 58, 23, 57, 61, 39, 64, 61, 20, 19, 22, 28, 22, 39, 65, 77, 16, 62, 79, 10, 75, 26, 80, 55, 50, 58, 6, 63, 86, 46, 55, 55, 48, 42, 48, 15, 43, 72, 22, 70, 55, 32, 13, 26, 39, 13, 90, 51, 56, 45, 79, 70, 71, 65, 18, 28, 60, 92, 71, 49, 33, 83, 61, 60, 13, 49, 20, 39, 57, 34, 56, 34, 49, 53, 67, 36, 30, 50, 46, 61, 37, 22, 77, 78, 69, 57, 57, 16, 78, 41, 50, 50, 62, 86, 36, 22, 24, 82, 67, 80, 30, 37, 78, 74, 54, 40, 88, 67, 54, 50, 17, 35, 55, 40, 11, 28, 32, 64, 64, 82, 61, 83, 94, 45, 67, 16, 4, 58, 34, 71, 40, 86, 63, 77, 31, 20, 21, 28, 71, 54, 53, 11, 39, 18, 32, 65, 62, 43, 73, 18, 10, 19, 1, 51, 46, 21, 29, 35, 4, 78, 47, 45, 76, 30, 21, 61, 42, 80, 65, 52, 68, 88, 17, 42, 46, 59, 29, 38, 16, 63, 71, 23, 29, 69, 52, 63, 73, 53, 57, 65, 83, 47, 81, 21, 33, 85, 51, 40, 38, 69, 77, 49, 31, 59, 44, 78, 21, 75, 76, 36, 83, 42, 36, 70, 60, 76, 78, 46, 12, 70, 68, 100, 77, 36, 66, 90, 62, 19, 87, 60, 53, 66, 71, 26, 35, 81, 22, 61, 55, 31, 16, 77, 11, 35, 45, 35, 29, 79, 41, 75, 50, 88, 49, 32, 90, 84, 38, 36, 64, 26, 76, 20, 40, 41, 41, 32, 58
              |54, 76, 15, 49, 41, 61, 39, 56, 38, 62, 36, 38, 38, 49, 25, 47, 18, 82, 44, 21, 42, 6, 20, 36, 25, 45, 43, 45, 46, 36, 22, 51, 25, 36, 46, 9, 61, 62, 23, 56, 55, 4, 13, 10, 14, 6, 35, 49, 80, 32, 62, 66, 19, 69, 24, 81, 49, 43, 62, 21, 69, 75, 53, 46, 50, 37, 37, 35, 21, 27, 70, 33, 68, 39, 20, 24, 14, 49, 22, 80, 35, 40, 58, 82, 72, 75, 61, 15, 19, 62, 83, 78, 34, 48, 75, 52, 63, 29, 35, 36, 44, 67, 49, 40, 36, 58, 39, 70, 22, 46, 60, 33, 63, 23, 35, 74, 65, 69, 43, 41, 25, 72, 28, 36, 39, 48, 75, 35, 21, 21, 73, 54, 68, 15, 31, 68, 62, 62, 54, 79, 58, 43, 35, 33, 50, 64, 46, 5, 19, 48, 48, 55, 87, 47, 78, 85, 31, 66, 32, 13, 65, 36, 69, 25, 77, 61, 68, 18, 22, 19, 40, 73, 51, 51, 25, 35, 34, 43, 74, 51, 30, 74, 13, 19, 31, 15, 56, 30, 25, 30, 32, 12, 66, 57, 30, 69, 26, 18, 47, 39, 70, 49, 60, 76, 78, 8, 37, 51, 52, 40, 53, 30, 48, 57, 37, 16, 59, 37, 53, 81, 37, 41, 49, 79, 32, 76, 31, 44, 78, 41, 49, 53, 55, 69, 41, 27, 60, 36, 81, 9, 66, 84, 31, 72, 31, 48, 57, 58, 69, 76, 36, 8, 78, 73, 91, 72, 33, 53, 81, 67, 8, 75, 58, 39, 51, 62, 38, 21, 79, 17, 47, 48, 43, 28, 66, 27, 39, 35, 23, 15, 79, 34, 78, 35, 81, 58, 16, 80, 76, 53, 45, 57, 11, 64, 11, 24, 46, 49, 42, 54
              |54, 70, 22, 72, 42, 46, 60, 52, 52, 73, 13, 32, 39, 70, 11, 26, 12, 77, 37, 8, 19, 23, 12, 54, 40, 34, 21, 23, 55, 19, 10, 74, 37, 14, 65, 29, 57, 63, 46, 70, 65, 27, 24, 29, 34, 29, 43, 72, 78, 9, 65, 85, 13, 80, 31, 82, 60, 55, 59, 4, 63, 93, 45, 61, 61, 55, 48, 54, 18, 50, 75, 18, 74, 62, 39, 10, 34, 37, 16, 96, 58, 63, 41, 80, 72, 71, 69, 22, 35, 62, 98, 70, 57, 26, 89, 67, 62, 6, 56, 13, 40, 55, 27, 63, 37, 47, 60, 69, 42, 23, 49, 53, 63, 44, 16, 81, 85, 72, 63, 64, 17, 83, 48, 57, 57, 69, 93, 40, 25, 27, 88, 73, 86, 36, 42, 84, 81, 53, 36, 93, 72, 60, 57, 10, 29, 53, 41, 18, 35, 25, 71, 70, 81, 68, 88, 99, 51, 71, 10, 11, 58, 37, 75, 47, 92, 66, 83, 37, 25, 27, 25, 73, 58, 57, 9, 44, 11, 30, 63, 68, 49, 75, 23, 11, 14, 8, 52, 53, 24, 33, 40, 11, 85, 46, 52, 82, 36, 26, 68, 47, 86, 72, 52, 66, 94, 24, 47, 47, 64, 27, 30, 14, 71, 78, 18, 34, 76, 59, 69, 72, 59, 64, 72, 87, 54, 85, 21, 30, 90, 57, 40, 33, 76, 83, 55, 37, 61, 50, 79, 28, 81, 75, 41, 89, 48, 34, 77, 63, 81, 82, 52, 19, 69, 69, 106, 81, 40, 73, 95, 63, 26, 94, 64, 60, 74, 77, 24, 41, 84, 28, 68, 60, 29, 14, 84, 4, 37, 52, 40, 36, 82, 47, 76, 56, 93, 47, 39, 96, 90, 31, 35, 69, 34, 82, 25, 48, 43, 40, 30, 62
              |77, 100, 39, 39, 64, 84, 45, 80, 55, 80, 53, 62, 62, 52, 47, 67, 41, 106, 68, 35, 57, 30, 43, 49, 44, 69, 55, 64, 66, 58, 44, 49, 46, 49, 57, 15, 85, 85, 27, 72, 74, 20, 17, 14, 12, 20, 57, 40, 103, 50, 84, 72, 43, 86, 47, 103, 69, 61, 86, 38, 93, 86, 77, 61, 68, 50, 57, 14, 45, 20, 92, 40, 89, 35, 36, 36, 32, 73, 45, 90, 30, 38, 80, 105, 95, 98, 81, 20, 40, 85, 95, 102, 39, 61, 88, 67, 87, 47, 42, 54, 68, 91, 68, 29, 60, 82, 44, 93, 8, 63, 84, 45, 86, 33, 46, 94, 71, 90, 22, 40, 49, 89, 39, 43, 53, 55, 85, 57, 20, 18, 87, 61, 78, 11, 52, 80, 72, 86, 76, 92, 72, 56, 40, 48, 70, 88, 70, 26, 40, 65, 35, 69, 111, 51, 96, 98, 10, 88, 51, 35, 89, 60, 90, 11, 91, 83, 81, 6, 47, 43, 63, 96, 72, 73, 46, 56, 51, 67, 98, 64, 8, 96, 18, 32, 41, 35, 80, 30, 49, 54, 54, 33, 73, 81, 18, 84, 48, 42, 55, 61, 81, 44, 84, 100, 89, 19, 57, 75, 70, 64, 66, 52, 44, 61, 59, 8, 71, 21, 67, 105, 23, 33, 44, 97, 21, 94, 54, 67, 93, 56, 73, 74, 60, 83, 58, 49, 83, 53, 104, 31, 79, 108, 52, 82, 46, 71, 66, 80, 86, 97, 52, 33, 102, 97, 102, 90, 56, 61, 95, 90, 30, 84, 79, 44, 53, 77, 61, 6, 100, 40, 55, 66, 66, 51, 76, 43, 64, 50, 2, 29, 100, 53, 101, 18, 98, 82, 15, 90, 89, 65, 69, 74, 27, 73, 16, 25, 70, 73, 66, 74
              |4, 22, 42, 88, 17, 35, 61, 6, 38, 36, 58, 24, 19, 69, 45, 53, 46, 26, 20, 63, 65, 51, 45, 48, 41, 27, 70, 51, 25, 43, 46, 79, 36, 66, 52, 66, 7, 9, 64, 41, 29, 61, 69, 68, 69, 61, 27, 87, 23, 55, 13, 69, 44, 40, 34, 26, 28, 33, 6, 58, 16, 66, 17, 41, 30, 47, 30, 88, 39, 74, 23, 74, 25, 75, 49, 66, 50, 29, 41, 66, 75, 75, 39, 25, 16, 17, 27, 69, 43, 6, 64, 25, 63, 72, 55, 43, 6, 56, 59, 56, 16, 30, 55, 85, 21, 24, 62, 13, 76, 62, 25, 51, 8, 56, 71, 32, 72, 20, 95, 73, 39, 43, 53, 59, 46, 63, 66, 24, 75, 76, 54, 62, 64, 70, 33, 56, 62, 19, 43, 59, 45, 48, 63, 62, 54, 27, 16, 58, 43, 64, 92, 45, 31, 67, 42, 63, 86, 19, 52, 52, 15, 22, 26, 78, 58, 18, 53, 75, 35, 38, 36, 17, 21, 17, 47, 28, 59, 31, 28, 49, 86, 20, 69, 64, 70, 54, 6, 69, 34, 27, 28, 54, 68, 24, 79, 46, 34, 39, 61, 24, 59, 82, 16, 27, 64, 65, 29, 10, 33, 33, 74, 43, 79, 71, 45, 73, 53, 86, 47, 29, 85, 82, 82, 41, 79, 40, 35, 33, 51, 43, 22, 48, 69, 50, 38, 33, 8, 38, 24, 50, 53, 31, 31, 64, 45, 32, 62, 17, 41, 30, 42, 50, 28, 17, 72, 37, 26, 62, 59, 10, 51, 69, 19, 62, 73, 47, 36, 77, 31, 41, 61, 34, 33, 42, 61, 59, 19, 44, 79, 54, 27, 35, 21, 86, 49, 24, 69, 66, 55, 76, 25, 37, 55, 62, 68, 67, 13, 20, 30, 24
              |35, 59, 8, 55, 22, 50, 34, 38, 23, 45, 40, 23, 20, 45, 24, 46, 18, 65, 29, 33, 47, 13, 19, 25, 11, 34, 50, 43, 27, 32, 22, 51, 7, 44, 36, 28, 44, 43, 28, 40, 37, 22, 32, 29, 30, 22, 16, 55, 61, 35, 43, 57, 17, 52, 6, 62, 31, 26, 44, 29, 52, 63, 38, 31, 32, 26, 19, 50, 14, 37, 51, 46, 49, 42, 14, 36, 12, 38, 17, 66, 41, 43, 49, 63, 53, 56, 43, 33, 7, 43, 68, 61, 33, 55, 60, 38, 45, 34, 31, 39, 27, 54, 48, 49, 18, 44, 35, 51, 37, 49, 47, 25, 44, 22, 46, 55, 57, 49, 57, 42, 19, 55, 22, 31, 27, 42, 63, 16, 39, 40, 58, 45, 57, 31, 13, 54, 52, 46, 47, 64, 43, 31, 33, 40, 49, 51, 30, 21, 7, 51, 57, 40, 70, 43, 60, 70, 47, 47, 34, 20, 48, 18, 50, 40, 62, 42, 53, 36, 9, 3, 32, 54, 32, 32, 25, 16, 39, 33, 59, 38, 47, 55, 32, 33, 43, 23, 38, 34, 12, 13, 13, 21, 56, 43, 41, 52, 7, 4, 40, 20, 57, 52, 44, 60, 64, 27, 19, 34, 35, 31, 59, 27, 49, 51, 34, 35, 46, 49, 40, 64, 48, 48, 52, 60, 42, 58, 22, 34, 61, 28, 35, 48, 49, 53, 26, 8, 41, 21, 62, 11, 52, 67, 12, 60, 20, 38, 48, 39, 52, 57, 23, 13, 62, 55, 77, 54, 14, 45, 66, 49, 12, 64, 39, 35, 48, 47, 30, 38, 60, 2, 40, 31, 33, 24, 54, 34, 23, 22, 40, 17, 60, 17, 59, 48, 64, 44, 30, 66, 60, 60, 32, 40, 17, 53, 30, 31, 28, 34, 32, 35
              |68, 94, 46, 16, 59, 91, 12, 74, 35, 54, 76, 64, 57, 13, 62, 85, 55, 98, 69, 61, 82, 41, 56, 25, 33, 75, 83, 82, 49, 72, 59, 11, 39, 76, 26, 38, 79, 72, 17, 44, 52, 37, 47, 40, 34, 35, 46, 16, 90, 71, 69, 34, 55, 58, 46, 86, 48, 41, 78, 61, 87, 49, 77, 35, 47, 25, 42, 33, 54, 19, 73, 72, 68, 5, 27, 64, 31, 79, 56, 54, 9, 3, 90, 91, 82, 88, 59, 50, 35, 74, 60, 97, 9, 89, 55, 39, 76, 69, 13, 75, 66, 94, 87, 18, 57, 84, 11, 81, 32, 86, 87, 21, 73, 20, 75, 71, 32, 72, 34, 1, 59, 61, 20, 13, 28, 18, 48, 50, 54, 53, 55, 25, 41, 33, 40, 46, 35, 85, 88, 58, 43, 27, 9, 73, 88, 90, 69, 46, 35, 88, 21, 40, 103, 13, 69, 64, 35, 70, 71, 52, 85, 56, 69, 28, 57, 65, 48, 36, 50, 44, 73, 81, 54, 57, 62, 44, 74, 74, 97, 33, 36, 80, 48, 59, 71, 55, 74, 11, 53, 52, 45, 52, 35, 83, 22, 54, 42, 44, 19, 49, 46, 10, 82, 98, 53, 43, 43, 71, 47, 73, 93, 66, 8, 22, 74, 38, 38, 25, 36, 101, 22, 12, 10, 71, 20, 68, 63, 76, 63, 31, 75, 89, 21, 51, 36, 42, 70, 34, 91, 36, 46, 103, 42, 45, 27, 79, 29, 63, 58, 75, 30, 45, 99, 89, 65, 64, 47, 24, 61, 82, 37, 47, 62, 11, 14, 46, 71, 33, 79, 41, 19, 43, 75, 64, 40, 67, 62, 28, 38, 27, 81, 37, 88, 28, 68, 84, 28, 54, 56, 93, 73, 48, 30, 37, 44, 17, 66, 75, 73, 55
              |51, 56, 39, 96, 43, 24, 79, 45, 65, 79, 16, 30, 41, 90, 23, 3, 30, 63, 31, 34, 19, 45, 29, 70, 56, 23, 25, 4, 61, 13, 26, 95, 51, 25, 80, 55, 48, 60, 69, 79, 71, 52, 51, 55, 60, 54, 52, 96, 69, 18, 63, 101, 30, 86, 42, 76, 66, 65, 51, 30, 50, 104, 35, 73, 68, 71, 57, 81, 31, 75, 73, 37, 74, 85, 59, 35, 54, 22, 29, 107, 82, 86, 18, 71, 65, 61, 73, 49, 52, 57, 107, 55, 77, 24, 98, 78, 55, 22, 76, 15, 37, 35, 4, 88, 40, 31, 80, 62, 68, 13, 32, 70, 59, 65, 31, 81, 102, 70, 89, 86, 26, 88, 67, 76, 72, 87, 105, 47, 51, 53, 96, 90, 100, 62, 54, 95, 95, 39, 12, 102, 83, 75, 78, 23, 4, 35, 36, 43, 52, 14, 96, 81, 67, 88, 91, 107, 77, 69, 17, 35, 45, 41, 75, 73, 101, 66, 93, 64, 36, 42, 16, 67, 62, 59, 23, 54, 19, 20, 45, 81, 76, 70, 50, 37, 33, 34, 45, 76, 34, 40, 50, 36, 100, 31, 78, 89, 48, 42, 85, 53, 98, 95, 39, 49, 105, 50, 56, 41, 72, 18, 24, 19, 93, 96, 11, 61, 88, 85, 81, 55, 85, 88, 95, 89, 79, 88, 24, 18, 96, 71, 29, 7, 94, 92, 67, 48, 58, 63, 70, 49, 92, 58, 52, 102, 65, 18, 92, 64, 86, 81, 66, 41, 52, 57, 116, 84, 48, 89, 103, 54, 48, 106, 65, 80, 93, 87, 17, 68, 82, 45, 85, 69, 18, 21, 97, 26, 37, 67, 67, 58, 78, 59, 67, 82, 97, 31, 64, 107, 98, 27, 26, 77, 56, 96, 52, 71, 40, 30, 21, 67
              |28, 47, 52, 75, 33, 65, 47, 37, 27, 6, 79, 46, 36, 50, 63, 79, 61, 48, 45, 77, 87, 58, 60, 35, 39, 54, 91, 76, 18, 65, 63, 62, 38, 85, 33, 70, 37, 23, 58, 16, 8, 65, 76, 72, 71, 64, 29, 74, 36, 75, 19, 43, 59, 10, 42, 29, 14, 21, 35, 73, 44, 36, 47, 24, 14, 35, 26, 85, 54, 69, 16, 90, 10, 63, 46, 81, 51, 57, 57, 36, 65, 62, 68, 37, 30, 38, 4, 78, 44, 27, 34, 51, 51, 94, 25, 21, 30, 75, 47, 77, 40, 61, 81, 76, 37, 54, 48, 30, 76, 85, 56, 40, 25, 50, 89, 12, 47, 17, 89, 59, 56, 12, 45, 46, 32, 44, 37, 32, 84, 85, 23, 40, 36, 71, 32, 27, 36, 50, 71, 28, 19, 31, 51, 81, 80, 57, 41, 66, 44, 87, 80, 21, 52, 49, 15, 32, 84, 15, 72, 64, 45, 37, 11, 76, 27, 13, 24, 76, 48, 47, 61, 28, 14, 17, 65, 29, 79, 57, 58, 27, 85, 25, 77, 77, 87, 68, 37, 60, 48, 40, 33, 66, 42, 54, 73, 15, 38, 48, 42, 26, 30, 67, 47, 56, 34, 71, 26, 38, 13, 58, 97, 64, 64, 49, 68, 76, 27, 80, 24, 56, 78, 71, 67, 15, 73, 13, 55, 59, 20, 28, 50, 75, 48, 20, 25, 37, 24, 29, 36, 54, 25, 57, 33, 35, 37, 60, 38, 14, 11, 16, 31, 58, 56, 41, 42, 9, 32, 40, 28, 36, 55, 40, 12, 48, 54, 19, 59, 77, 20, 47, 42, 16, 59, 62, 34, 76, 40, 33, 80, 53, 23, 30, 35, 81, 21, 54, 68, 36, 25, 99, 51, 11, 56, 35, 74, 61, 37, 48, 56, 10
              |35, 52, 14, 73, 23, 34, 53, 33, 39, 57, 24, 13, 20, 64, 8, 27, 10, 59, 19, 26, 31, 22, 9, 44, 30, 18, 36, 24, 38, 13, 9, 70, 25, 30, 54, 36, 39, 44, 45, 55, 49, 32, 36, 37, 41, 33, 28, 72, 59, 20, 46, 75, 9, 64, 17, 63, 43, 40, 40, 21, 45, 80, 28, 48, 45, 45, 33, 62, 6, 53, 56, 37, 56, 61, 33, 29, 29, 22, 6, 83, 58, 61, 31, 61, 53, 53, 52, 35, 26, 43, 83, 53, 52, 39, 74, 54, 43, 20, 50, 22, 21, 40, 29, 65, 18, 31, 54, 50, 49, 31, 33, 44, 44, 40, 34, 63, 76, 54, 70, 61, 2, 67, 41, 50, 46, 61, 80, 23, 40, 42, 73, 64, 74, 42, 28, 71, 70, 36, 28, 78, 58, 49, 52, 26, 29, 38, 22, 25, 26, 33, 73, 56, 64, 62, 70, 84, 59, 52, 17, 17, 40, 19, 57, 52, 77, 48, 69, 45, 10, 16, 13, 54, 41, 39, 10, 29, 24, 16, 47, 56, 58, 56, 35, 28, 33, 18, 33, 52, 8, 16, 25, 19, 75, 30, 56, 66, 22, 16, 59, 30, 73, 70, 34, 50, 80, 33, 32, 28, 48, 13, 42, 8, 68, 70, 15, 43, 63, 64, 56, 55, 63, 65, 70, 70, 57, 68, 4, 17, 74, 45, 22, 29, 68, 68, 42, 23, 42, 38, 60, 25, 68, 58, 27, 77, 39, 21, 66, 45, 64, 63, 41, 19, 52, 50, 92, 64, 24, 64, 80, 45, 24, 81, 46, 54, 68, 62, 11, 49, 65, 19, 59, 45, 16, 6, 71, 22, 18, 41, 50, 34, 63, 34, 57, 62, 76, 31, 43, 83, 75, 44, 19, 54, 32, 71, 35, 48, 24, 23, 15, 45
              |48, 74, 32, 36, 39, 73, 9, 55, 15, 37, 64, 46, 38, 19, 49, 72, 43, 78, 51, 54, 72, 31, 43, 5, 15, 57, 74, 68, 29, 57, 47, 27, 21, 67, 13, 36, 59, 52, 18, 28, 34, 32, 44, 38, 35, 31, 26, 35, 70, 60, 50, 33, 42, 42, 29, 67, 29, 21, 58, 52, 68, 43, 58, 17, 28, 6, 22, 45, 40, 28, 54, 66, 49, 23, 14, 57, 20, 61, 42, 47, 25, 23, 73, 71, 62, 68, 40, 47, 19, 54, 51, 77, 11, 79, 44, 23, 56, 58, 7, 64, 47, 75, 74, 35, 38, 66, 10, 61, 37, 74, 68, 1, 53, 12, 68, 53, 32, 53, 48, 21, 44, 45, 6, 7, 9, 16, 42, 30, 52, 52, 43, 21, 35, 34, 21, 36, 29, 66, 72, 48, 28, 11, 11, 63, 74, 72, 50, 38, 19, 76, 40, 25, 83, 17, 53, 54, 44, 51, 59, 42, 65, 37, 50, 36, 46, 46, 36, 39, 35, 29, 57, 62, 35, 37, 50, 24, 64, 57, 78, 19, 45, 60, 45, 52, 64, 45, 55, 19, 37, 34, 26, 42, 33, 65, 33, 40, 24, 29, 15, 29, 37, 30, 63, 78, 45, 40, 23, 52, 28, 56, 83, 52, 27, 25, 60, 40, 27, 39, 22, 81, 37, 31, 30, 54, 32, 51, 48, 59, 49, 13, 57, 74, 23, 38, 17, 24, 50, 14, 71, 26, 34, 83, 23, 39, 7, 62, 24, 43, 42, 56, 11, 34, 80, 69, 58, 48, 28, 20, 50, 62, 27, 42, 42, 10, 23, 32, 55, 38, 60, 26, 15, 25, 58, 50, 33, 57, 43, 8, 43, 19, 62, 17, 69, 40, 54, 66, 30, 47, 45, 84, 55, 31, 22, 31, 42, 21, 46, 56, 56, 35
              |38, 59, 55, 67, 41, 75, 40, 48, 26, 6, 84, 54, 43, 41, 68, 86, 65, 60, 54, 81, 92, 59, 65, 31, 39, 63, 96, 83, 23, 72, 67, 53, 40, 90, 26, 69, 49, 35, 54, 8, 13, 65, 77, 71, 69, 63, 33, 66, 48, 80, 31, 32, 63, 7, 46, 40, 18, 21, 46, 77, 56, 24, 57, 19, 16, 30, 29, 81, 59, 64, 28, 93, 22, 56, 45, 84, 50, 66, 61, 25, 59, 55, 78, 49, 42, 50, 15, 78, 45, 39, 23, 63, 45, 100, 14, 13, 42, 80, 41, 83, 48, 72, 88, 69, 44, 65, 41, 42, 73, 92, 66, 35, 37, 47, 93, 21, 35, 29, 84, 52, 62, 9, 41, 40, 27, 35, 25, 37, 84, 85, 13, 30, 24, 69, 34, 15, 25, 61, 80, 18, 9, 25, 44, 86, 88, 68, 51, 67, 45, 94, 73, 12, 64, 40, 17, 23, 80, 27, 78, 67, 57, 43, 22, 72, 17, 25, 12, 74, 52, 50, 68, 40, 22, 26, 70, 32, 85, 65, 69, 18, 81, 37, 77, 80, 90, 71, 48, 55, 53, 45, 36, 68, 30, 64, 69, 5, 41, 51, 33, 31, 18, 59, 58, 68, 23, 72, 29, 48, 13, 66, 103, 69, 56, 39, 75, 75, 16, 75, 15, 68, 72, 64, 59, 19, 68, 16, 62, 67, 14, 24, 59, 84, 38, 8, 23, 40, 35, 28, 48, 55, 12, 69, 36, 23, 34, 69, 28, 25, 6, 26, 28, 60, 68, 53, 32, 13, 37, 31, 19, 48, 56, 28, 23, 41, 44, 7, 67, 74, 30, 49, 33, 16, 67, 67, 22, 81, 47, 30, 78, 52, 34, 30, 48, 76, 18, 65, 65, 25, 14, 105, 60, 7, 55, 24, 74, 57, 46, 58, 64, 18
              |82, 107, 47, 28, 70, 93, 40, 86, 55, 79, 66, 69, 67, 45, 58, 78, 51, 112, 76, 48, 69, 38, 52, 48, 46, 78, 68, 76, 68, 68, 55, 39, 50, 62, 54, 24, 91, 89, 25, 71, 75, 28, 29, 24, 19, 27, 60, 28, 107, 62, 88, 66, 52, 85, 53, 106, 70, 62, 91, 49, 99, 80, 85, 60, 69, 49, 60, 2, 54, 14, 94, 53, 90, 27, 38, 48, 36, 82, 54, 85, 22, 29, 90, 109, 99, 103, 82, 32, 43, 90, 91, 108, 34, 74, 85, 65, 92, 59, 38, 66, 74, 100, 80, 17, 66, 90, 39, 97, 11, 75, 92, 44, 90, 33, 59, 95, 64, 93, 10, 32, 58, 88, 38, 39, 52, 49, 80, 62, 33, 31, 84, 56, 72, 17, 55, 76, 66, 93, 87, 88, 70, 53, 35, 61, 82, 97, 77, 36, 43, 77, 23, 67, 117, 44, 95, 94, 4, 90, 63, 45, 96, 65, 91, 8, 87, 85, 77, 16, 54, 49, 73, 99, 74, 76, 57, 59, 63, 76, 105, 61, 6, 99, 30, 44, 54, 46, 86, 24, 57, 60, 58, 43, 66, 89, 10, 82, 52, 48, 49, 64, 77, 34, 91, 107, 84, 29, 60, 81, 70, 73, 79, 62, 34, 53, 69, 18, 67, 9, 64, 112, 11, 22, 34, 97, 11, 94, 64, 77, 91, 55, 81, 85, 52, 80, 58, 53, 87, 54, 108, 37, 75, 115, 56, 76, 46, 80, 60, 82, 85, 98, 52, 41, 110, 103, 97, 90, 60, 55, 91, 96, 37, 78, 82, 39, 45, 74, 71, 12, 102, 46, 49, 66, 75, 61, 71, 55, 70, 49, 13, 32, 103, 54, 105, 5, 96, 90, 18, 85, 86, 78, 78, 73, 31, 68, 28, 21, 76, 81, 75, 76
              |58, 82, 58, 46, 56, 92, 25, 67, 30, 31, 90, 66, 56, 20, 74, 96, 69, 84, 69, 81, 98, 58, 69, 26, 40, 77, 101, 93, 38, 81, 72, 30, 44, 94, 15, 63, 69, 58, 43, 22, 34, 60, 72, 65, 61, 58, 43, 45, 73, 86, 54, 7, 68, 32, 52, 66, 34, 31, 68, 79, 78, 16, 74, 22, 32, 25, 38, 66, 64, 51, 53, 93, 47, 38, 41, 84, 47, 81, 67, 21, 42, 36, 93, 74, 66, 74, 39, 74, 45, 61, 27, 86, 31, 105, 24, 19, 64, 85, 28, 89, 64, 91, 98, 51, 57, 82, 25, 66, 62, 99, 84, 28, 60, 39, 95, 47, 9, 54, 67, 33, 69, 33, 33, 27, 23, 15, 16, 49, 80, 80, 23, 8, 8, 60, 41, 14, 2, 80, 93, 26, 18, 20, 30, 90, 98, 87, 66, 66, 45, 102, 53, 17, 88, 20, 41, 31, 67, 52, 84, 69, 77, 56, 48, 59, 25, 48, 17, 65, 59, 54, 80, 65, 41, 45, 75, 41, 90, 78, 90, 14, 68, 62, 72, 80, 91, 72, 67, 41, 61, 55, 45, 69, 6, 81, 54, 26, 47, 54, 15, 44, 13, 37, 77, 90, 20, 67, 39, 66, 29, 78, 110, 77, 35, 14, 84, 66, 10, 58, 15, 91, 55, 45, 37, 44, 53, 41, 71, 80, 32, 24, 75, 96, 14, 21, 28, 46, 57, 31, 73, 53, 15, 92, 43, 12, 31, 82, 4, 48, 31, 52, 28, 61, 90, 76, 33, 39, 47, 9, 29, 70, 54, 15, 46, 25, 22, 19, 78, 63, 56, 52, 15, 29, 79, 75, 7, 84, 61, 28, 68, 46, 60, 35, 72, 61, 39, 82, 55, 21, 25, 110, 75, 27, 50, 4, 69, 45, 62, 74, 77, 39
              |97, 122, 65, 21, 86, 112, 46, 102, 67, 88, 86, 87, 84, 47, 77, 98, 70, 127, 93, 68, 90, 56, 72, 57, 60, 96, 88, 96, 80, 88, 74, 37, 65, 82, 60, 44, 107, 102, 37, 79, 85, 48, 49, 44, 39, 46, 74, 22, 121, 82, 101, 66, 71, 93, 70, 118, 81, 73, 107, 70, 115, 82, 102, 69, 80, 58, 73, 19, 72, 27, 105, 73, 101, 30, 52, 68, 52, 100, 73, 87, 27, 31, 110, 123, 113, 118, 92, 52, 59, 104, 93, 125, 41, 94, 90, 73, 106, 79, 46, 86, 91, 118, 100, 17, 82, 108, 45, 112, 31, 95, 110, 53, 104, 45, 79, 105, 63, 105, 11, 34, 77, 95, 49, 47, 61, 52, 81, 77, 53, 51, 89, 59, 74, 37, 69, 80, 68, 111, 106, 92, 77, 61, 42, 81, 102, 115, 94, 56, 59, 97, 14, 74, 132, 47, 103, 98, 23, 103, 83, 65, 112, 82, 102, 27, 91, 97, 82, 36, 72, 66, 92, 113, 86, 89, 77, 73, 83, 94, 123, 68, 25, 112, 50, 65, 74, 66, 102, 33, 75, 77, 73, 63, 67, 107, 23, 89, 68, 65, 54, 78, 80, 30, 108, 124, 86, 49, 73, 98, 80, 92, 99, 82, 32, 53, 89, 39, 72, 15, 71, 128, 16, 22, 30, 105, 22, 102, 82, 96, 97, 64, 99, 105, 53, 86, 69, 69, 101, 65, 122, 54, 80, 131, 70, 78, 57, 99, 63, 95, 92, 108, 62, 60, 126, 118, 98, 99, 75, 58, 95, 111, 55, 79, 94, 45, 45, 80, 90, 32, 112, 63, 54, 77, 94, 80, 74, 75, 87, 60, 33, 48, 114, 67, 119, 17, 103, 108, 36, 87, 91, 98, 96, 82, 47, 70, 48, 34, 92, 98, 94, 87
              |43, 18, 79, 127, 55, 46, 99, 38, 76, 66, 83, 57, 57, 106, 76, 73, 80, 13, 51, 95, 89, 88, 78, 86, 80, 52, 95, 72, 62, 69, 78, 117, 75, 93, 89, 103, 33, 40, 103, 75, 63, 98, 105, 104, 107, 98, 66, 126, 24, 82, 43, 103, 78, 68, 71, 34, 64, 70, 33, 90, 25, 96, 42, 78, 66, 86, 68, 127, 74, 113, 45, 103, 50, 114, 88, 97, 89, 50, 75, 95, 114, 113, 52, 24, 31, 23, 58, 104, 81, 37, 90, 17, 102, 94, 83, 78, 34, 85, 98, 81, 50, 35, 74, 124, 58, 40, 101, 31, 114, 83, 39, 89, 38, 95, 98, 53, 106, 43, 133, 112, 72, 69, 92, 97, 84, 100, 97, 63, 109, 111, 82, 98, 96, 108, 72, 87, 96, 34, 58, 85, 78, 86, 101, 89, 72, 35, 48, 93, 81, 84, 130, 79, 9, 104, 64, 87, 124, 45, 79, 86, 30, 59, 50, 117, 84, 48, 84, 112, 72, 76, 62, 32, 57, 54, 78, 67, 86, 56, 25, 85, 124, 36, 104, 97, 99, 88, 38, 108, 69, 64, 67, 88, 102, 41, 117, 74, 72, 77, 98, 62, 90, 121, 35, 21, 93, 101, 68, 43, 68, 59, 94, 73, 118, 107, 71, 110, 87, 125, 82, 15, 124, 121, 121, 61, 118, 62, 66, 57, 75, 81, 47, 64, 106, 80, 75, 71, 41, 77, 24, 88, 85, 12, 70, 95, 84, 54, 97, 50, 69, 49, 80, 86, 18, 22, 97, 62, 65, 98, 84, 29, 88, 100, 51, 101, 110, 79, 63, 114, 46, 78, 98, 70, 58, 72, 94, 89, 55, 82, 116, 93, 40, 74, 25, 125, 71, 40, 107, 95, 83, 97, 51, 70, 94, 96, 104, 106, 49, 47, 57, 59
              |57, 78, 18, 52, 44, 61, 43, 58, 43, 67, 33, 39, 41, 53, 24, 45, 18, 85, 45, 17, 38, 10, 19, 41, 30, 46, 39, 42, 50, 35, 21, 55, 29, 32, 51, 9, 64, 65, 27, 61, 60, 7, 9, 9, 15, 9, 39, 52, 83, 29, 66, 71, 19, 73, 27, 84, 54, 48, 65, 17, 71, 80, 55, 51, 54, 42, 41, 35, 22, 30, 74, 28, 72, 43, 25, 19, 19, 50, 22, 85, 39, 44, 57, 84, 75, 77, 65, 10, 24, 65, 88, 79, 39, 44, 80, 57, 66, 26, 40, 33, 46, 68, 47, 43, 39, 59, 44, 73, 22, 43, 61, 38, 66, 28, 31, 78, 70, 72, 43, 45, 25, 77, 33, 40, 44, 53, 80, 38, 16, 17, 78, 59, 73, 16, 35, 73, 67, 63, 53, 84, 63, 48, 40, 29, 48, 65, 48, 3, 24, 45, 51, 60, 89, 52, 83, 90, 32, 70, 30, 12, 66, 39, 73, 27, 82, 65, 72, 18, 25, 22, 39, 76, 55, 55, 23, 39, 31, 43, 75, 56, 31, 77, 9, 15, 26, 12, 58, 34, 27, 33, 36, 10, 71, 57, 32, 73, 30, 21, 52, 43, 75, 53, 61, 77, 83, 5, 41, 53, 57, 40, 49, 29, 52, 61, 36, 16, 64, 39, 58, 82, 39, 44, 53, 83, 34, 80, 31, 44, 83, 46, 50, 52, 60, 73, 46, 31, 63, 40, 84, 14, 71, 85, 35, 77, 36, 48, 62, 62, 74, 80, 41, 10, 80, 76, 96, 76, 37, 58, 86, 69, 13, 80, 62, 44, 56, 67, 38, 22, 83, 21, 52, 53, 43, 27, 71, 23, 42, 40, 22, 20, 82, 38, 81, 36, 86, 59, 19, 85, 81, 49, 46, 62, 16, 69, 8, 28, 48, 50, 42, 58
              |22, 14, 50, 102, 28, 21, 76, 13, 54, 54, 54, 27, 30, 85, 46, 46, 50, 21, 21, 65, 60, 59, 48, 64, 54, 23, 66, 44, 42, 39, 48, 94, 49, 63, 69, 74, 11, 26, 76, 59, 47, 69, 75, 75, 78, 69, 41, 102, 27, 53, 30, 87, 48, 58, 43, 36, 46, 50, 14, 59, 8, 84, 12, 59, 48, 63, 45, 98, 44, 86, 38, 74, 42, 89, 61, 67, 61, 21, 45, 85, 89, 89, 26, 29, 25, 19, 45, 74, 54, 22, 82, 14, 78, 66, 73, 61, 19, 55, 74, 52, 22, 13, 47, 98, 31, 11, 78, 23, 86, 55, 11, 66, 24, 69, 69, 48, 89, 35, 105, 88, 42, 60, 67, 74, 62, 80, 85, 37, 79, 81, 72, 79, 82, 79, 47, 74, 80, 4, 32, 77, 63, 65, 77, 60, 45, 10, 19, 64, 54, 57, 105, 63, 25, 83, 59, 80, 96, 35, 50, 56, 4, 32, 42, 88, 75, 35, 72, 83, 43, 47, 32, 28, 39, 35, 48, 43, 56, 26, 10, 66, 95, 32, 74, 66, 69, 58, 13, 82, 40, 36, 42, 58, 86, 12, 90, 64, 45, 48, 77, 39, 77, 97, 5, 11, 82, 71, 44, 16, 51, 30, 67, 43, 94, 88, 41, 81, 71, 98, 65, 16, 97, 95, 97, 57, 91, 56, 36, 27, 68, 60, 17, 38, 86, 68, 54, 45, 25, 54, 28, 59, 71, 19, 45, 82, 60, 25, 80, 35, 59, 45, 58, 56, 13, 15, 90, 54, 39, 79, 77, 14, 59, 87, 37, 78, 89, 65, 33, 86, 45, 50, 77, 51, 28, 42, 79, 59, 26, 59, 87, 65, 40, 50, 26, 97, 66, 11, 78, 85, 73, 70, 21, 55, 66, 80, 74, 79, 21, 17, 27, 42
              |15, 41, 35, 70, 16, 50, 42, 24, 19, 21, 61, 28, 18, 49, 45, 61, 43, 44, 29, 60, 69, 42, 43, 29, 26, 37, 73, 58, 5, 48, 45, 60, 23, 68, 33, 56, 27, 18, 48, 23, 12, 50, 61, 58, 58, 50, 13, 69, 36, 57, 16, 50, 41, 27, 25, 34, 9, 13, 25, 56, 35, 48, 32, 22, 11, 29, 13, 74, 36, 59, 22, 72, 20, 57, 34, 63, 37, 40, 39, 50, 58, 57, 52, 38, 28, 34, 15, 62, 30, 20, 49, 44, 45, 76, 39, 24, 23, 57, 41, 59, 23, 48, 63, 68, 19, 40, 44, 27, 64, 67, 42, 33, 19, 40, 71, 26, 52, 21, 80, 55, 38, 30, 36, 40, 27, 43, 49, 15, 68, 69, 38, 42, 45, 58, 18, 39, 43, 37, 54, 44, 26, 29, 45, 63, 62, 44, 25, 50, 30, 70, 74, 26, 49, 47, 33, 49, 73, 19, 54, 47, 34, 19, 21, 64, 42, 13, 36, 63, 30, 30, 43, 28, 4, 4, 47, 13, 61, 39, 47, 29, 73, 27, 61, 60, 69, 50, 24, 52, 30, 22, 16, 49, 49, 39, 64, 30, 22, 31, 41, 9, 41, 64, 34, 47, 48, 56, 12, 23, 14, 40, 79, 45, 61, 51, 50, 62, 34, 71, 28, 49, 69, 64, 64, 33, 64, 30, 37, 42, 37, 24, 34, 58, 49, 34, 18, 21, 16, 20, 37, 39, 35, 51, 17, 46, 28, 43, 42, 10, 28, 28, 23, 42, 48, 35, 57, 26, 15, 42, 44, 29, 40, 51, 10, 44, 53, 29, 42, 64, 31, 31, 41, 14, 41, 44, 42, 59, 22, 25, 67, 40, 31, 18, 35, 71, 39, 40, 55, 50, 40, 81, 34, 19, 43, 43, 59, 52, 21, 32, 39, 8
              |41, 16, 77, 125, 52, 45, 97, 36, 74, 64, 82, 55, 55, 104, 74, 72, 78, 11, 49, 93, 87, 86, 77, 84, 78, 51, 93, 71, 60, 68, 76, 115, 73, 91, 87, 101, 31, 38, 100, 72, 61, 96, 103, 102, 105, 96, 64, 124, 22, 81, 41, 101, 76, 66, 69, 32, 62, 68, 31, 88, 23, 93, 40, 76, 64, 83, 66, 124, 72, 111, 43, 102, 48, 112, 86, 96, 87, 49, 73, 93, 112, 111, 51, 22, 28, 21, 56, 102, 79, 35, 88, 15, 100, 93, 81, 76, 32, 83, 96, 80, 49, 34, 73, 122, 56, 39, 98, 29, 112, 82, 37, 87, 36, 93, 97, 51, 104, 41, 131, 109, 70, 66, 89, 95, 82, 98, 95, 61, 107, 109, 80, 96, 94, 106, 69, 85, 94, 32, 57, 83, 76, 83, 99, 88, 71, 34, 46, 91, 79, 83, 128, 77, 6, 102, 62, 85, 122, 43, 78, 84, 28, 57, 48, 114, 82, 46, 82, 110, 70, 74, 61, 30, 55, 52, 76, 65, 84, 55, 24, 82, 122, 34, 102, 95, 98, 86, 36, 105, 67, 62, 65, 86, 100, 40, 115, 72, 70, 75, 96, 60, 88, 118, 33, 20, 91, 99, 65, 41, 66, 58, 93, 71, 116, 105, 69, 108, 85, 123, 80, 14, 122, 118, 118, 59, 116, 60, 65, 55, 73, 79, 46, 63, 103, 77, 73, 69, 39, 74, 22, 86, 82, 11, 68, 93, 82, 53, 95, 47, 67, 47, 78, 84, 17, 20, 95, 59, 63, 96, 82, 27, 86, 98, 49, 98, 108, 77, 61, 112, 44, 76, 96, 68, 57, 71, 91, 87, 53, 80, 115, 91, 38, 72, 23, 123, 69, 39, 105, 93, 81, 96, 50, 68, 92, 93, 102, 104, 47, 45, 55, 56
              |25, 41, 21, 77, 14, 28, 55, 22, 37, 50, 32, 2, 12, 65, 19, 31, 21, 48, 8, 37, 40, 30, 20, 44, 31, 11, 45, 28, 32, 18, 20, 73, 25, 40, 53, 45, 27, 34, 50, 50, 42, 40, 46, 46, 49, 41, 23, 77, 48, 29, 36, 73, 19, 57, 17, 52, 37, 36, 29, 32, 34, 76, 17, 45, 39, 44, 29, 70, 15, 59, 46, 48, 47, 65, 36, 40, 34, 15, 16, 78, 63, 65, 27, 50, 42, 42, 44, 46, 29, 32, 78, 42, 55, 47, 69, 50, 32, 30, 52, 30, 10, 32, 33, 72, 11, 22, 56, 39, 57, 38, 24, 45, 34, 44, 45, 54, 75, 44, 78, 65, 13, 59, 44, 52, 45, 61, 76, 18, 51, 52, 67, 63, 71, 51, 26, 66, 67, 26, 27, 73, 54, 48, 55, 36, 33, 29, 11, 35, 29, 40, 79, 52, 53, 63, 62, 78, 67, 42, 26, 27, 29, 12, 47, 60, 71, 38, 64, 54, 14, 20, 14, 43, 33, 31, 21, 25, 34, 11, 37, 53, 66, 46, 46, 39, 44, 29, 22, 57, 11, 12, 22, 30, 73, 21, 63, 60, 22, 21, 59, 24, 69, 74, 24, 40, 76, 42, 28, 17, 42, 11, 50, 17, 72, 70, 21, 52, 60, 71, 53, 45, 70, 70, 74, 61, 64, 59, 9, 13, 67, 43, 13, 30, 68, 62, 39, 22, 32, 36, 49, 32, 63, 48, 24, 73, 39, 16, 65, 36, 57, 54, 39, 28, 42, 39, 87, 56, 20, 63, 74, 33, 31, 78, 37, 56, 69, 57, 12, 57, 55, 23, 59, 40, 13, 16, 68, 33, 8, 40, 59, 39, 53, 32, 46, 69, 68, 22, 51, 78, 69, 52, 10, 48, 39, 68, 45, 53, 13, 13, 10, 37
              |57, 77, 18, 56, 44, 58, 47, 58, 45, 69, 29, 38, 41, 57, 21, 41, 16, 84, 44, 13, 34, 12, 17, 44, 32, 44, 34, 39, 52, 32, 18, 59, 31, 28, 55, 13, 63, 66, 31, 64, 62, 11, 10, 13, 18, 14, 40, 56, 82, 25, 66, 74, 17, 76, 28, 85, 56, 50, 64, 13, 70, 84, 53, 53, 56, 45, 43, 39, 21, 34, 75, 24, 73, 47, 28, 15, 22, 47, 20, 88, 43, 48, 54, 84, 76, 77, 67, 9, 26, 65, 91, 78, 43, 40, 82, 60, 66, 22, 44, 29, 45, 66, 43, 47, 39, 57, 47, 73, 26, 39, 59, 42, 66, 31, 27, 80, 74, 73, 47, 49, 24, 79, 36, 44, 47, 57, 83, 39, 15, 16, 81, 62, 77, 20, 37, 76, 71, 62, 50, 86, 65, 51, 44, 25, 45, 63, 47, 4, 26, 41, 55, 63, 89, 55, 84, 93, 35, 71, 26, 9, 65, 39, 74, 31, 85, 66, 75, 22, 25, 23, 37, 76, 56, 56, 20, 41, 27, 41, 73, 59, 34, 78, 9, 11, 22, 9, 58, 38, 26, 33, 37, 7, 74, 56, 36, 76, 31, 22, 56, 44, 78, 57, 60, 76, 86, 8, 43, 53, 59, 38, 45, 26, 56, 65, 33, 19, 67, 43, 61, 81, 43, 48, 57, 85, 38, 82, 29, 42, 85, 49, 48, 48, 64, 76, 48, 32, 64, 43, 83, 17, 74, 84, 37, 80, 39, 45, 66, 63, 76, 81, 44, 11, 78, 75, 98, 78, 38, 62, 89, 69, 15, 84, 63, 47, 60, 70, 35, 25, 84, 22, 56, 55, 40, 25, 74, 19, 41, 43, 25, 23, 83, 40, 81, 40, 88, 57, 23, 88, 83, 45, 44, 64, 20, 72, 10, 32, 47, 49, 40, 60
              |39, 60, 3, 61, 25, 45, 43, 39, 33, 54, 30, 21, 22, 54, 14, 37, 8, 66, 27, 24, 37, 11, 9, 35, 21, 29, 40, 34, 35, 23, 12, 59, 17, 34, 46, 26, 45, 47, 34, 50, 46, 21, 28, 27, 30, 22, 24, 61, 64, 25, 48, 67, 7, 60, 11, 66, 40, 35, 46, 20, 52, 73, 36, 41, 41, 36, 28, 51, 5, 41, 57, 37, 56, 49, 22, 28, 18, 33, 7, 76, 47, 50, 42, 66, 57, 59, 50, 28, 16, 47, 78, 61, 41, 45, 69, 47, 48, 24, 40, 29, 27, 51, 39, 54, 20, 41, 44, 54, 38, 39, 43, 35, 48, 29, 36, 62, 67, 55, 59, 50, 10, 64, 31, 40, 37, 51, 73, 21, 34, 35, 68, 55, 67, 32, 22, 64, 62, 45, 40, 73, 52, 41, 41, 30, 39, 48, 29, 16, 16, 41, 62, 50, 71, 52, 68, 79, 48, 53, 24, 11, 48, 20, 57, 42, 72, 48, 63, 35, 6, 7, 25, 58, 39, 38, 15, 25, 29, 27, 57, 48, 47, 59, 28, 25, 34, 15, 39, 40, 8, 15, 21, 13, 66, 40, 45, 62, 16, 6, 50, 27, 66, 59, 43, 59, 74, 24, 27, 34, 44, 25, 49, 17, 57, 60, 25, 33, 56, 52, 50, 64, 52, 53, 59, 68, 46, 66, 15, 28, 70, 38, 32, 40, 59, 63, 35, 17, 45, 30, 65, 14, 62, 67, 21, 70, 30, 32, 58, 45, 61, 64, 33, 9, 61, 57, 86, 62, 21, 55, 75, 50, 13, 74, 46, 44, 57, 57, 23, 38, 66, 9, 50, 40, 27, 15, 64, 24, 23, 32, 40, 22, 65, 27, 62, 51, 73, 41, 32, 76, 70, 50, 28, 49, 21, 63, 27, 36, 29, 32, 26, 43
              |38, 13, 74, 122, 50, 44, 94, 34, 71, 61, 81, 53, 52, 101, 72, 71, 76, 8, 47, 91, 86, 84, 74, 81, 75, 49, 92, 70, 57, 66, 74, 112, 70, 90, 84, 99, 29, 34, 98, 69, 57, 93, 101, 100, 102, 94, 61, 121, 19, 79, 38, 98, 74, 63, 67, 29, 59, 65, 28, 86, 21, 90, 38, 73, 61, 80, 63, 122, 70, 108, 40, 100, 45, 109, 83, 94, 84, 48, 71, 90, 109, 108, 50, 19, 25, 17, 52, 100, 77, 32, 85, 13, 97, 92, 78, 73, 29, 82, 93, 79, 46, 33, 72, 119, 54, 37, 95, 25, 110, 81, 36, 84, 33, 90, 95, 48, 101, 38, 128, 106, 68, 63, 86, 92, 79, 95, 91, 58, 105, 107, 77, 93, 91, 103, 66, 82, 91, 31, 56, 80, 73, 80, 96, 86, 70, 33, 44, 89, 77, 82, 125, 74, 3, 99, 59, 82, 119, 40, 76, 82, 26, 54, 45, 112, 79, 43, 79, 108, 67, 71, 59, 27, 52, 49, 74, 62, 83, 53, 23, 79, 119, 30, 100, 93, 96, 84, 34, 103, 65, 60, 62, 84, 97, 38, 113, 69, 67, 72, 93, 57, 85, 115, 31, 19, 88, 97, 62, 39, 63, 56, 92, 69, 113, 102, 68, 106, 82, 120, 77, 13, 119, 116, 115, 56, 113, 57, 63, 54, 70, 75, 44, 62, 100, 74, 70, 67, 36, 71, 19, 83, 79, 11, 65, 90, 79, 51, 92, 44, 64, 44, 75, 81, 16, 17, 92, 56, 60, 93, 79, 24, 83, 95, 46, 95, 105, 74, 59, 110, 41, 74, 93, 64, 55, 69, 88, 85, 50, 77, 112, 88, 35, 69, 19, 120, 66, 37, 102, 90, 77, 95, 48, 65, 89, 90, 100, 101, 44, 43, 53, 53
              |40, 66, 23, 44, 30, 64, 19, 46, 12, 37, 55, 36, 29, 29, 39, 62, 34, 71, 41, 46, 62, 23, 34, 10, 5, 47, 65, 59, 24, 48, 37, 37, 11, 58, 21, 32, 51, 46, 20, 30, 31, 27, 39, 34, 32, 26, 18, 43, 64, 51, 44, 41, 33, 43, 19, 62, 26, 18, 50, 43, 60, 49, 49, 19, 25, 11, 16, 46, 30, 31, 50, 58, 46, 31, 7, 49, 13, 51, 32, 53, 30, 30, 63, 66, 56, 62, 38, 41, 9, 47, 56, 69, 19, 70, 48, 26, 49, 49, 16, 54, 37, 66, 64, 40, 28, 56, 20, 55, 36, 64, 59, 9, 47, 12, 59, 51, 42, 49, 51, 29, 34, 46, 8, 16, 13, 26, 49, 21, 47, 47, 47, 30, 42, 32, 12, 41, 37, 57, 62, 52, 31, 16, 19, 54, 64, 62, 40, 31, 9, 67, 47, 28, 76, 27, 53, 58, 45, 47, 49, 33, 57, 28, 47, 37, 51, 41, 41, 37, 25, 19, 47, 56, 30, 32, 40, 16, 54, 47, 69, 24, 45, 56, 40, 45, 56, 37, 46, 24, 27, 24, 17, 34, 41, 55, 35, 42, 14, 19, 24, 21, 43, 39, 54, 70, 51, 34, 16, 43, 27, 46, 74, 42, 36, 35, 50, 37, 32, 43, 26, 73, 41, 37, 39, 54, 36, 51, 37, 49, 51, 14, 47, 64, 33, 42, 15, 14, 44, 10, 65, 18, 39, 75, 14, 45, 4, 52, 32, 38, 43, 54, 9, 25, 71, 62, 64, 47, 19, 29, 54, 55, 19, 49, 38, 20, 33, 35, 45, 37, 58, 17, 24, 23, 48, 40, 40, 48, 34, 8, 41, 14, 59, 10, 63, 43, 56, 56, 28, 53, 49, 75, 46, 31, 17, 38, 37, 23, 38, 47, 46, 32
              |36, 59, 51, 64, 38, 73, 36, 46, 22, 6, 81, 50, 40, 39, 65, 83, 61, 60, 51, 77, 89, 55, 61, 27, 35, 60, 92, 80, 19, 69, 63, 50, 36, 86, 22, 65, 47, 34, 50, 4, 11, 61, 73, 67, 65, 59, 30, 63, 48, 77, 30, 31, 59, 10, 42, 41, 14, 17, 45, 73, 55, 25, 54, 15, 13, 26, 25, 77, 55, 61, 28, 89, 23, 53, 41, 80, 46, 63, 58, 27, 56, 51, 75, 49, 42, 50, 15, 74, 40, 38, 26, 62, 42, 96, 17, 9, 41, 76, 37, 79, 46, 70, 85, 66, 41, 62, 38, 42, 69, 88, 64, 31, 36, 43, 89, 23, 34, 29, 80, 49, 58, 13, 37, 36, 23, 32, 26, 34, 80, 81, 16, 28, 24, 65, 31, 16, 24, 59, 77, 21, 6, 22, 41, 82, 84, 66, 48, 63, 40, 91, 70, 9, 64, 37, 21, 27, 76, 28, 74, 63, 55, 40, 23, 68, 20, 24, 13, 70, 48, 46, 65, 40, 20, 24, 66, 28, 81, 62, 68, 15, 77, 37, 73, 76, 86, 67, 46, 51, 50, 42, 33, 64, 30, 62, 65, 9, 37, 47, 30, 28, 19, 56, 56, 67, 25, 67, 26, 46, 9, 63, 100, 66, 53, 37, 72, 70, 15, 71, 12, 67, 68, 61, 56, 22, 64, 19, 58, 64, 18, 20, 56, 81, 35, 11, 19, 36, 34, 24, 49, 51, 13, 69, 32, 24, 30, 66, 26, 24, 10, 28, 24, 56, 67, 53, 35, 16, 33, 28, 23, 47, 52, 29, 22, 38, 42, 7, 64, 70, 32, 45, 30, 12, 64, 64, 21, 77, 44, 26, 74, 48, 36, 26, 48, 72, 22, 62, 61, 27, 18, 101, 57, 4, 51, 23, 70, 53, 43, 55, 61, 16
              |63, 87, 28, 34, 51, 75, 31, 67, 39, 64, 51, 50, 48, 39, 41, 63, 34, 93, 57, 35, 56, 19, 35, 33, 28, 59, 56, 60, 51, 51, 37, 39, 31, 50, 42, 10, 72, 70, 12, 56, 59, 11, 19, 12, 6, 9, 42, 34, 89, 47, 69, 59, 34, 70, 34, 88, 53, 45, 72, 35, 80, 71, 66, 45, 52, 34, 42, 21, 35, 12, 76, 44, 73, 25, 20, 36, 17, 63, 36, 75, 21, 27, 72, 90, 81, 85, 65, 22, 25, 71, 80, 89, 25, 62, 73, 51, 73, 44, 27, 51, 55, 81, 64, 25, 47, 71, 30, 79, 9, 61, 74, 30, 71, 17, 48, 78, 57, 75, 28, 29, 40, 73, 23, 28, 37, 40, 70, 43, 26, 25, 72, 47, 63, 5, 36, 65, 57, 74, 69, 76, 57, 40, 26, 47, 66, 78, 58, 20, 25, 63, 33, 54, 98, 38, 80, 83, 19, 73, 47, 28, 76, 46, 74, 11, 75, 67, 65, 10, 35, 30, 55, 81, 56, 58, 40, 41, 49, 57, 86, 48, 19, 81, 20, 32, 43, 30, 67, 17, 38, 41, 39, 27, 59, 70, 15, 68, 34, 29, 40, 46, 66, 35, 72, 88, 74, 16, 42, 62, 54, 55, 67, 45, 34, 48, 53, 11, 55, 22, 51, 93, 22, 26, 35, 81, 16, 78, 45, 59, 78, 40, 62, 68, 46, 67, 42, 34, 68, 37, 89, 18, 63, 96, 37, 67, 30, 62, 51, 65, 70, 81, 36, 23, 91, 84, 87, 74, 41, 46, 79, 77, 18, 70, 64, 30, 41, 61, 53, 10, 84, 27, 40, 50, 57, 43, 61, 41, 51, 34, 14, 14, 85, 37, 87, 20, 82, 71, 1, 75, 74, 67, 59, 58, 12, 59, 16, 11, 57, 62, 56, 58
              |46, 60, 71, 84, 53, 83, 57, 54, 43, 19, 98, 65, 55, 58, 82, 98, 80, 58, 64, 96, 106, 76, 80, 49, 56, 73, 110, 95, 37, 85, 82, 69, 57, 105, 43, 87, 53, 39, 72, 26, 26, 82, 94, 89, 87, 81, 48, 83, 45, 94, 35, 44, 78, 12, 61, 35, 32, 38, 51, 92, 59, 30, 64, 37, 32, 48, 45, 99, 73, 82, 27, 109, 23, 74, 62, 100, 68, 75, 76, 28, 77, 72, 86, 45, 41, 50, 23, 96, 62, 43, 22, 64, 63, 114, 17, 31, 46, 95, 59, 97, 59, 77, 100, 87, 57, 72, 59, 43, 91, 105, 73, 53, 41, 65, 108, 17, 48, 29, 102, 69, 76, 9, 59, 58, 45, 52, 32, 51, 102, 102, 17, 46, 35, 87, 51, 26, 38, 66, 89, 18, 26, 43, 62, 100, 99, 74, 60, 84, 62, 107, 90, 29, 61, 57, 5, 18, 98, 29, 92, 83, 61, 56, 22, 90, 17, 30, 23, 92, 67, 66, 80, 39, 34, 36, 84, 48, 99, 76, 72, 36, 99, 35, 94, 96, 106, 87, 54, 73, 68, 59, 51, 85, 43, 71, 87, 15, 57, 66, 50, 45, 28, 75, 64, 70, 26, 89, 45, 56, 29, 77, 117, 83, 73, 54, 88, 92, 32, 93, 33, 69, 90, 81, 75, 8, 86, 8, 75, 78, 8, 42, 68, 94, 53, 18, 40, 56, 40, 46, 45, 72, 25, 69, 51, 32, 52, 79, 43, 32, 12, 20, 46, 77, 69, 54, 28, 11, 51, 47, 16, 51, 73, 35, 30, 59, 60, 23, 79, 92, 23, 65, 50, 33, 78, 81, 33, 96, 59, 48, 96, 69, 29, 47, 45, 94, 2, 72, 83, 28, 16, 118, 70, 24, 73, 36, 92, 75, 56, 67, 75, 30
              |42, 48, 35, 93, 35, 18, 74, 36, 58, 71, 21, 22, 33, 84, 21, 12, 28, 55, 23, 36, 26, 42, 27, 64, 50, 14, 32, 10, 54, 10, 24, 91, 45, 30, 74, 55, 40, 51, 66, 72, 63, 51, 52, 55, 60, 52, 45, 93, 60, 21, 54, 95, 27, 77, 36, 67, 59, 58, 42, 32, 41, 97, 26, 66, 60, 65, 50, 80, 27, 73, 64, 42, 65, 81, 54, 38, 50, 14, 25, 99, 79, 82, 13, 62, 56, 52, 64, 50, 47, 48, 99, 47, 73, 32, 90, 71, 47, 24, 71, 19, 28, 28, 13, 86, 32, 23, 75, 53, 68, 21, 24, 65, 50, 61, 36, 73, 96, 61, 89, 82, 22, 80, 62, 71, 65, 81, 97, 40, 53, 55, 88, 84, 93, 61, 47, 88, 89, 30, 8, 94, 75, 69, 73, 27, 12, 27, 27, 42, 47, 23, 94, 74, 59, 82, 82, 99, 77, 60, 19, 34, 36, 33, 66, 72, 93, 57, 86, 64, 31, 37, 8, 58, 54, 51, 22, 47, 24, 11, 38, 74, 76, 61, 51, 39, 38, 33, 36, 73, 28, 33, 43, 35, 94, 22, 76, 81, 42, 37, 79, 46, 90, 91, 31, 41, 97, 50, 49, 32, 64, 10, 33, 17, 89, 90, 10, 61, 81, 83, 74, 47, 83, 86, 91, 81, 77, 79, 18, 9, 88, 64, 20, 8, 88, 84, 60, 42, 49, 57, 61, 46, 85, 50, 45, 94, 59, 9, 86, 55, 78, 72, 60, 39, 44, 49, 108, 76, 41, 83, 95, 45, 45, 99, 57, 75, 88, 79, 10, 67, 73, 40, 79, 62, 9, 18, 90, 29, 29, 61, 67, 54, 69, 52, 58, 81, 88, 23, 63, 99, 90, 36, 17, 69, 53, 89, 52, 68, 31, 21, 12, 58
              |20, 46, 32, 64, 17, 53, 37, 28, 14, 21, 60, 29, 18, 44, 44, 61, 41, 50, 31, 58, 68, 38, 41, 24, 21, 39, 72, 58, 2, 47, 43, 54, 19, 66, 28, 51, 32, 23, 43, 20, 13, 46, 57, 53, 53, 45, 9, 64, 42, 56, 21, 46, 39, 27, 22, 39, 7, 8, 30, 53, 40, 46, 35, 17, 9, 23, 7, 69, 34, 54, 27, 70, 24, 52, 29, 61, 33, 42, 37, 48, 52, 51, 55, 43, 34, 40, 17, 58, 25, 26, 48, 49, 40, 75, 38, 20, 28, 56, 35, 58, 25, 52, 63, 63, 19, 43, 38, 33, 59, 67, 45, 27, 25, 34, 69, 30, 48, 26, 74, 49, 37, 31, 30, 35, 21, 38, 46, 13, 64, 65, 37, 37, 42, 53, 13, 36, 39, 41, 56, 43, 24, 23, 39, 62, 63, 48, 28, 46, 25, 69, 69, 23, 54, 42, 35, 48, 67, 24, 53, 44, 39, 19, 25, 59, 41, 18, 34, 58, 28, 27, 44, 33, 7, 9, 45, 9, 60, 41, 52, 25, 68, 33, 57, 58, 67, 48, 28, 46, 29, 21, 13, 46, 45, 42, 58, 30, 18, 28, 36, 6, 39, 58, 38, 52, 46, 52, 7, 27, 12, 41, 79, 45, 55, 46, 50, 58, 31, 66, 24, 54, 64, 59, 58, 35, 58, 33, 37, 43, 38, 18, 36, 60, 44, 32, 13, 17, 22, 14, 43, 35, 33, 56, 13, 43, 22, 45, 38, 16, 28, 32, 18, 39, 53, 41, 56, 28, 13, 38, 44, 34, 36, 48, 15, 38, 48, 27, 42, 59, 36, 27, 36, 10, 43, 43, 39, 57, 23, 20, 63, 35, 36, 13, 40, 66, 40, 43, 50, 48, 39, 80, 36, 18, 38, 39, 55, 46, 23, 35, 40, 10
              |12, 14, 48, 95, 23, 32, 68, 7, 46, 42, 59, 27, 25, 76, 48, 53, 50, 19, 22, 67, 66, 57, 49, 55, 48, 28, 72, 51, 33, 44, 50, 86, 43, 68, 60, 72, 2, 14, 71, 48, 36, 67, 74, 73, 75, 67, 34, 95, 19, 57, 18, 77, 49, 46, 40, 26, 36, 40, 2, 62, 8, 72, 16, 49, 38, 55, 37, 95, 44, 81, 26, 77, 30, 82, 56, 70, 57, 28, 45, 73, 82, 82, 36, 21, 15, 12, 33, 74, 50, 9, 70, 17, 71, 73, 61, 51, 7, 59, 67, 57, 20, 25, 55, 92, 27, 21, 70, 12, 83, 62, 21, 58, 12, 63, 73, 36, 79, 23, 101, 80, 43, 48, 60, 66, 54, 71, 73, 31, 80, 81, 60, 69, 71, 77, 40, 63, 69, 14, 41, 65, 52, 56, 70, 64, 53, 22, 18, 63, 50, 64, 99, 52, 24, 74, 47, 68, 92, 23, 54, 56, 9, 27, 30, 85, 64, 24, 60, 81, 41, 44, 37, 17, 28, 25, 50, 36, 61, 32, 21, 56, 92, 21, 74, 68, 73, 59, 7, 76, 39, 33, 35, 59, 76, 21, 86, 52, 40, 45, 68, 31, 66, 90, 12, 20, 71, 70, 36, 12, 40, 34, 74, 46, 87, 78, 47, 79, 60, 93, 55, 22, 92, 89, 90, 45, 86, 44, 38, 33, 56, 51, 22, 47, 77, 56, 45, 40, 13, 46, 20, 56, 60, 24, 38, 71, 53, 32, 69, 23, 47, 34, 50, 55, 21, 10, 78, 42, 33, 70, 65, 4, 57, 76, 25, 70, 80, 54, 37, 83, 33, 47, 68, 41, 34, 45, 68, 62, 24, 51, 85, 61, 28, 43, 17, 93, 54, 21, 75, 73, 61, 77, 25, 44, 62, 69, 73, 74, 17, 20, 31, 31
              |46, 72, 34, 39, 38, 73, 11, 53, 12, 33, 66, 46, 37, 19, 51, 73, 45, 75, 50, 57, 74, 33, 45, 2, 16, 57, 76, 70, 26, 59, 48, 29, 21, 69, 10, 39, 57, 49, 22, 24, 30, 36, 48, 42, 39, 34, 25, 38, 67, 62, 47, 30, 44, 38, 30, 63, 26, 18, 56, 54, 66, 39, 57, 14, 24, 3, 21, 49, 41, 32, 50, 69, 46, 26, 16, 59, 23, 61, 43, 43, 28, 25, 73, 69, 59, 66, 37, 50, 21, 52, 47, 75, 14, 81, 40, 19, 54, 60, 10, 65, 46, 75, 75, 38, 37, 65, 12, 58, 41, 76, 67, 3, 51, 16, 70, 49, 30, 50, 52, 23, 46, 41, 9, 9, 5, 15, 39, 29, 56, 56, 39, 18, 32, 38, 20, 32, 26, 65, 72, 44, 24, 7, 14, 65, 75, 71, 49, 41, 21, 78, 44, 21, 80, 17, 49, 50, 48, 48, 60, 44, 64, 36, 47, 40, 42, 43, 32, 43, 35, 30, 58, 59, 32, 35, 51, 23, 66, 57, 76, 16, 49, 57, 48, 55, 66, 48, 53, 23, 38, 34, 25, 45, 30, 64, 37, 36, 24, 30, 13, 27, 34, 32, 62, 77, 42, 43, 22, 50, 25, 56, 85, 53, 29, 24, 61, 44, 23, 43, 18, 79, 40, 34, 32, 50, 36, 47, 48, 59, 45, 9, 56, 74, 22, 34, 13, 24, 48, 12, 68, 28, 30, 81, 22, 35, 7, 62, 21, 40, 38, 53, 8, 36, 78, 67, 55, 44, 27, 18, 46, 60, 30, 39, 39, 12, 23, 28, 56, 42, 57, 28, 13, 21, 58, 51, 29, 59, 42, 6, 47, 22, 59, 16, 66, 44, 50, 65, 34, 43, 41, 86, 55, 27, 26, 28, 45, 25, 45, 55, 56, 32
              |22, 13, 61, 104, 35, 44, 76, 22, 53, 42, 74, 42, 38, 82, 63, 68, 65, 12, 37, 81, 81, 70, 64, 63, 59, 43, 87, 66, 39, 59, 64, 93, 54, 83, 66, 85, 17, 16, 81, 50, 38, 80, 88, 87, 88, 80, 44, 103, 4, 72, 19, 79, 63, 44, 52, 14, 40, 47, 15, 76, 16, 72, 31, 54, 42, 62, 46, 107, 58, 92, 21, 92, 26, 91, 67, 84, 69, 42, 60, 71, 92, 91, 50, 6, 6, 4, 34, 88, 61, 14, 67, 17, 79, 88, 59, 54, 13, 74, 75, 72, 34, 35, 69, 102, 40, 34, 77, 7, 95, 77, 34, 67, 15, 73, 88, 30, 82, 19, 113, 89, 57, 45, 69, 74, 61, 76, 73, 43, 94, 95, 58, 74, 72, 89, 50, 63, 72, 27, 55, 62, 54, 62, 79, 79, 68, 33, 33, 77, 61, 79, 108, 55, 16, 81, 41, 64, 104, 21, 69, 71, 20, 40, 26, 97, 61, 24, 60, 93, 54, 57, 52, 8, 34, 30, 65, 46, 76, 47, 28, 60, 104, 12, 88, 83, 88, 73, 22, 86, 53, 46, 46, 73, 78, 35, 97, 50, 52, 58, 74, 41, 66, 97, 26, 25, 69, 84, 45, 27, 44, 49, 89, 61, 95, 83, 62, 92, 63, 104, 58, 22, 102, 98, 97, 39, 97, 39, 53, 48, 52, 57, 36, 61, 81, 56, 52, 51, 18, 54, 5, 69, 60, 22, 49, 71, 62, 47, 73, 26, 45, 26, 57, 69, 23, 8, 74, 38, 44, 74, 61, 11, 69, 76, 27, 77, 86, 55, 52, 95, 24, 60, 74, 46, 49, 60, 69, 77, 38, 59, 98, 72, 18, 52, 2, 104, 49, 34, 87, 71, 59, 92, 40, 46, 74, 71, 87, 85, 32, 35, 46, 34
              |56, 76, 18, 60, 43, 55, 50, 56, 47, 70, 25, 36, 40, 61, 18, 38, 13, 82, 43, 9, 30, 14, 15, 47, 34, 42, 31, 35, 53, 29, 16, 63, 32, 24, 57, 17, 62, 65, 35, 65, 63, 15, 13, 16, 22, 17, 41, 60, 82, 21, 66, 77, 15, 77, 28, 84, 57, 51, 63, 9, 68, 86, 51, 55, 57, 48, 44, 42, 20, 38, 75, 21, 74, 51, 31, 12, 25, 45, 18, 90, 47, 52, 51, 84, 75, 76, 68, 11, 28, 65, 93, 76, 47, 36, 84, 62, 65, 18, 47, 25, 44, 63, 39, 51, 38, 55, 51, 72, 30, 35, 57, 45, 65, 35, 23, 80, 77, 73, 51, 53, 21, 80, 39, 47, 50, 60, 86, 39, 16, 18, 83, 65, 79, 24, 38, 78, 74, 60, 47, 88, 67, 53, 47, 21, 41, 61, 46, 7, 28, 37, 59, 65, 87, 59, 85, 95, 39, 71, 22, 7, 64, 38, 75, 35, 87, 66, 77, 25, 24, 24, 34, 76, 57, 56, 17, 41, 23, 38, 71, 61, 37, 77, 12, 8, 19, 6, 56, 42, 25, 33, 38, 5, 77, 53, 40, 77, 32, 23, 59, 45, 80, 61, 58, 74, 88, 11, 44, 51, 60, 35, 41, 23, 59, 69, 29, 22, 69, 47, 63, 79, 47, 52, 61, 86, 42, 83, 27, 39, 86, 51, 46, 45, 67, 78, 50, 33, 63, 45, 83, 19, 76, 82, 38, 82, 41, 42, 69, 63, 77, 81, 46, 12, 76, 74, 101, 79, 38, 65, 90, 67, 18, 86, 63, 51, 64, 72, 33, 29, 84, 23, 59, 56, 38, 22, 77, 15, 40, 45, 29, 27, 83, 42, 80, 44, 90, 55, 27, 90, 85, 41, 42, 65, 23, 75, 13, 36, 46, 47, 38, 60
              |62, 83, 69, 58, 62, 98, 38, 71, 39, 30, 100, 73, 63, 33, 84, 104, 79, 84, 75, 93, 108, 70, 80, 37, 50, 84, 111, 101, 43, 90, 82, 42, 54, 105, 27, 76, 72, 59, 56, 25, 36, 72, 84, 78, 74, 70, 51, 57, 72, 96, 55, 14, 78, 28, 62, 63, 38, 38, 70, 90, 80, 3, 79, 30, 36, 36, 46, 79, 74, 64, 51, 105, 46, 51, 53, 96, 59, 87, 77, 8, 56, 49, 99, 72, 66, 75, 39, 87, 56, 63, 15, 87, 44, 116, 15, 25, 66, 95, 41, 99, 70, 95, 107, 64, 64, 87, 39, 66, 75, 109, 89, 40, 61, 51, 106, 44, 17, 53, 80, 46, 78, 28, 46, 40, 34, 29, 2, 56, 92, 92, 15, 22, 5, 73, 50, 9, 11, 84, 100, 15, 21, 30, 43, 101, 107, 91, 72, 78, 56, 111, 65, 22, 88, 33, 35, 19, 80, 51, 94, 80, 80, 63, 46, 73, 15, 49, 12, 78, 68, 64, 88, 64, 45, 49, 85, 49, 100, 85, 93, 23, 81, 60, 85, 92, 103, 83, 71, 54, 70, 63, 53, 81, 12, 86, 67, 22, 56, 65, 28, 50, 6, 49, 81, 92, 7, 80, 47, 71, 33, 85, 120, 86, 47, 26, 93, 79, 15, 71, 22, 92, 68, 58, 49, 38, 66, 36, 79, 87, 24, 33, 81, 104, 26, 16, 36, 55, 59, 41, 72, 65, 12, 93, 51, 1, 43, 89, 17, 49, 27, 48, 38, 72, 92, 77, 19, 35, 55, 23, 18, 72, 66, 4, 47, 39, 34, 18, 86, 77, 52, 62, 28, 34, 87, 84, 7, 95, 68, 39, 81, 59, 57, 44, 71, 74, 30, 87, 69, 8, 16, 121, 81, 28, 62, 9, 82, 58, 68, 79, 84, 41
              |65, 83, 78, 71, 67, 102, 50, 74, 48, 32, 109, 80, 69, 46, 93, 112, 88, 83, 81, 103, 117, 80, 88, 48, 60, 89, 120, 109, 49, 98, 91, 55, 63, 114, 38, 87, 74, 60, 68, 31, 40, 84, 96, 89, 86, 82, 58, 70, 70, 105, 56, 26, 87, 27, 70, 60, 44, 45, 72, 99, 81, 10, 83, 39, 42, 47, 53, 92, 83, 77, 50, 115, 45, 64, 64, 106, 70, 92, 86, 5, 68, 62, 104, 70, 65, 74, 41, 98, 66, 64, 4, 87, 57, 124, 13, 33, 67, 104, 53, 108, 75, 98, 114, 77, 70, 91, 51, 66, 88, 117, 92, 51, 62, 63, 116, 41, 30, 52, 93, 59, 86, 26, 57, 52, 44, 41, 11, 63, 104, 104, 14, 34, 18, 85, 58, 16, 24, 87, 106, 9, 28, 41, 56, 110, 113, 94, 77, 88, 66, 119, 78, 30, 86, 46, 30, 9, 93, 51, 103, 90, 82, 69, 45, 85, 10, 50, 17, 90, 76, 73, 94, 63, 49, 52, 94, 57, 109, 91, 95, 33, 94, 59, 96, 102, 113, 93, 74, 66, 78, 70, 61, 91, 25, 90, 80, 22, 64, 74, 41, 57, 14, 62, 84, 93, 6, 91, 54, 74, 38, 92, 128, 94, 60, 39, 100, 91, 25, 84, 31, 92, 81, 71, 62, 34, 79, 32, 87, 93, 19, 43, 85, 110, 39, 18, 45, 64, 61, 50, 70, 75, 18, 93, 59, 14, 53, 95, 30, 51, 26, 45, 48, 82, 93, 77, 7, 33, 62, 35, 10, 73, 77, 14, 49, 51, 47, 23, 93, 89, 49, 72, 41, 41, 93, 92, 19, 104, 74, 49, 93, 70, 54, 53, 70, 87, 24, 91, 81, 5, 12, 129, 86, 33, 73, 22, 93, 71, 72, 84, 90, 45
              |26, 37, 60, 89, 37, 62, 61, 33, 40, 21, 82, 48, 40, 65, 68, 80, 67, 36, 46, 84, 90, 67, 66, 49, 50, 54, 95, 77, 28, 68, 68, 76, 48, 90, 48, 81, 31, 18, 71, 30, 21, 75, 86, 82, 82, 75, 38, 89, 23, 79, 14, 58, 65, 21, 50, 14, 26, 34, 29, 80, 36, 48, 44, 38, 27, 48, 37, 98, 60, 82, 4, 96, 5, 77, 58, 87, 62, 55, 63, 47, 79, 76, 66, 23, 18, 27, 14, 87, 55, 21, 43, 41, 66, 98, 35, 35, 24, 80, 61, 81, 41, 55, 82, 90, 41, 50, 62, 20, 88, 88, 51, 53, 19, 63, 94, 6, 61, 7, 103, 74, 61, 21, 58, 60, 46, 59, 49, 39, 93, 94, 35, 55, 50, 83, 42, 40, 51, 44, 69, 38, 34, 46, 65, 86, 80, 52, 41, 75, 55, 90, 95, 35, 39, 64, 17, 40, 96, 8, 76, 72, 39, 41, 4, 88, 37, 12, 37, 88, 55, 55, 62, 16, 22, 22, 70, 38, 84, 57, 50, 42, 97, 12, 86, 85, 93, 75, 33, 74, 54, 46, 41, 73, 56, 50, 87, 27, 47, 56, 57, 34, 43, 82, 42, 47, 46, 81, 36, 36, 27, 59, 100, 67, 79, 64, 71, 87, 42, 94, 39, 46, 91, 85, 82, 15, 86, 15, 59, 59, 28, 42, 48, 75, 62, 33, 38, 46, 19, 42, 23, 64, 38, 46, 42, 48, 50, 59, 53, 15, 22, 4, 44, 67, 47, 31, 50, 14, 40, 55, 37, 28, 65, 53, 15, 62, 69, 33, 61, 89, 6, 56, 57, 30, 59, 66, 47, 82, 42, 47, 92, 65, 9, 41, 23, 94, 25, 50, 80, 47, 35, 102, 51, 26, 67, 50, 84, 74, 38, 47, 57, 20
              |78, 104, 48, 13, 67, 96, 29, 84, 48, 70, 73, 70, 66, 31, 62, 85, 55, 109, 76, 56, 78, 41, 57, 39, 42, 80, 78, 82, 62, 73, 59, 25, 47, 71, 43, 31, 89, 84, 19, 61, 67, 33, 39, 32, 26, 31, 56, 14, 102, 69, 82, 52, 56, 75, 52, 100, 62, 55, 88, 57, 97, 67, 85, 51, 61, 40, 54, 16, 56, 10, 87, 64, 83, 13, 34, 58, 34, 84, 58, 72, 9, 15, 94, 104, 95, 100, 74, 42, 41, 86, 78, 106, 23, 84, 73, 55, 88, 66, 28, 73, 73, 101, 87, 3, 64, 91, 27, 93, 20, 83, 93, 35, 85, 27, 69, 86, 49, 86, 16, 18, 61, 78, 31, 28, 43, 36, 66, 59, 45, 43, 72, 43, 59, 24, 50, 64, 53, 93, 91, 76, 60, 43, 24, 69, 88, 97, 76, 42, 41, 85, 11, 57, 114, 31, 85, 82, 18, 84, 69, 50, 94, 64, 84, 15, 75, 79, 65, 25, 55, 49, 76, 94, 68, 70, 62, 54, 71, 78, 105, 50, 21, 93, 40, 53, 64, 52, 84, 14, 58, 59, 54, 49, 53, 90, 8, 72, 50, 48, 37, 59, 64, 19, 90, 107, 71, 37, 55, 80, 62, 76, 89, 67, 19, 39, 75, 28, 55, 7, 53, 110, 4, 7, 19, 87, 6, 84, 66, 79, 80, 46, 81, 90, 39, 69, 50, 50, 82, 47, 103, 38, 63, 113, 52, 63, 39, 83, 47, 76, 75, 90, 44, 44, 108, 100, 83, 81, 57, 42, 79, 93, 38, 65, 75, 27, 31, 63, 74, 22, 94, 46, 37, 58, 78, 65, 58, 63, 69, 42, 25, 30, 96, 48, 101, 10, 86, 91, 21, 72, 74, 88, 79, 64, 30, 55, 36, 16, 74, 81, 77, 69
              |64, 89, 59, 37, 60, 96, 21, 73, 33, 39, 91, 70, 60, 13, 75, 97, 69, 92, 73, 80, 98, 57, 70, 26, 40, 81, 100, 94, 44, 83, 73, 21, 46, 93, 17, 60, 76, 65, 39, 30, 42, 57, 69, 62, 57, 55, 47, 36, 81, 86, 61, 8, 68, 41, 54, 74, 41, 36, 74, 78, 84, 24, 79, 27, 39, 26, 42, 59, 66, 45, 61, 92, 56, 31, 40, 83, 46, 84, 68, 29, 35, 29, 97, 82, 74, 82, 47, 71, 45, 68, 36, 93, 26, 105, 33, 26, 71, 85, 24, 90, 68, 96, 100, 43, 60, 87, 21, 74, 57, 100, 89, 27, 67, 36, 94, 56, 6, 62, 60, 26, 70, 43, 32, 23, 25, 11, 23, 52, 77, 76, 33, 7, 16, 56, 44, 24, 11, 85, 97, 35, 27, 22, 25, 90, 100, 92, 71, 64, 45, 102, 44, 25, 96, 13, 50, 40, 60, 60, 85, 68, 83, 59, 56, 54, 34, 56, 26, 60, 60, 55, 82, 72, 48, 52, 76, 45, 90, 81, 96, 20, 62, 70, 69, 78, 90, 72, 73, 35, 63, 58, 48, 69, 9, 86, 48, 35, 49, 55, 12, 48, 22, 28, 82, 96, 28, 64, 43, 71, 36, 81, 110, 78, 26, 5, 86, 62, 18, 51, 22, 98, 48, 37, 28, 53, 46, 50, 73, 83, 42, 27, 79, 99, 5, 31, 32, 48, 64, 34, 81, 52, 24, 99, 46, 20, 32, 86, 7, 55, 40, 60, 30, 60, 97, 83, 40, 48, 50, 7, 38, 77, 53, 21, 53, 21, 13, 28, 80, 58, 65, 52, 12, 35, 82, 76, 16, 84, 65, 30, 63, 44, 69, 38, 80, 54, 48, 87, 51, 29, 34, 110, 78, 34, 48, 13, 66, 40, 67, 78, 80, 46
              |42, 44, 42, 100, 38, 11, 80, 35, 63, 73, 28, 26, 36, 90, 29, 16, 35, 51, 24, 44, 32, 50, 34, 69, 56, 16, 38, 16, 56, 18, 32, 97, 50, 37, 78, 62, 38, 50, 73, 75, 65, 58, 59, 62, 67, 60, 49, 100, 57, 29, 54, 99, 35, 79, 42, 65, 61, 61, 40, 40, 38, 100, 24, 70, 63, 70, 54, 88, 34, 80, 64, 49, 66, 88, 60, 45, 57, 13, 33, 102, 86, 89, 5, 59, 54, 49, 66, 58, 53, 47, 102, 42, 79, 37, 92, 75, 45, 32, 77, 26, 30, 22, 17, 93, 36, 19, 81, 51, 75, 26, 20, 70, 49, 67, 43, 73, 100, 61, 96, 88, 29, 82, 68, 77, 70, 86, 101, 44, 61, 63, 91, 88, 96, 69, 52, 91, 93, 27, 1, 96, 78, 73, 79, 34, 15, 22, 28, 50, 53, 27, 101, 77, 54, 88, 83, 101, 85, 60, 26, 41, 33, 37, 66, 79, 95, 58, 89, 71, 37, 43, 14, 56, 56, 53, 30, 51, 31, 14, 32, 78, 83, 60, 59, 47, 45, 41, 35, 79, 34, 37, 47, 43, 98, 19, 83, 83, 47, 43, 85, 49, 94, 98, 28, 36, 100, 57, 53, 32, 67, 15, 37, 24, 96, 96, 18, 69, 85, 91, 78, 42, 90, 92, 98, 81, 85, 80, 24, 12, 90, 69, 20, 7, 94, 86, 64, 47, 49, 61, 58, 53, 88, 45, 50, 98, 64, 10, 90, 56, 80, 72, 65, 46, 39, 46, 110, 77, 45, 88, 97, 43, 52, 103, 58, 81, 94, 82, 16, 75, 72, 46, 85, 65, 13, 25, 93, 36, 31, 66, 75, 61, 68, 57, 56, 89, 89, 19, 70, 102, 93, 40, 18, 72, 60, 93, 60, 75, 32, 21, 15, 60
              |59, 83, 59, 46, 57, 93, 25, 68, 31, 32, 91, 67, 57, 20, 75, 97, 70, 85, 70, 82, 99, 59, 70, 26, 40, 78, 101, 94, 39, 82, 73, 30, 45, 95, 16, 64, 70, 59, 43, 23, 35, 61, 72, 66, 62, 59, 44, 45, 74, 87, 55, 6, 69, 33, 53, 67, 35, 32, 69, 80, 79, 16, 75, 23, 33, 26, 39, 66, 65, 51, 54, 94, 48, 38, 42, 85, 48, 82, 68, 21, 42, 36, 94, 75, 67, 75, 40, 75, 46, 62, 27, 87, 31, 106, 24, 20, 65, 85, 28, 90, 65, 92, 99, 51, 57, 83, 26, 67, 62, 100, 85, 28, 61, 39, 96, 48, 9, 55, 67, 33, 70, 34, 34, 27, 24, 16, 15, 49, 80, 80, 24, 9, 8, 61, 42, 15, 2, 81, 94, 26, 19, 21, 30, 91, 99, 88, 67, 66, 46, 103, 52, 18, 89, 20, 42, 31, 67, 53, 85, 70, 78, 57, 49, 60, 25, 49, 17, 65, 59, 55, 81, 66, 42, 46, 76, 42, 91, 79, 91, 15, 68, 63, 73, 81, 92, 73, 68, 41, 62, 56, 46, 70, 5, 82, 54, 27, 47, 55, 15, 45, 14, 37, 78, 91, 20, 68, 40, 67, 30, 79, 110, 78, 34, 14, 85, 67, 11, 58, 16, 92, 55, 45, 37, 45, 53, 42, 72, 81, 33, 25, 76, 97, 13, 22, 29, 47, 58, 32, 74, 54, 16, 93, 44, 12, 32, 83, 4, 49, 32, 52, 29, 62, 91, 77, 32, 40, 48, 9, 29, 71, 55, 14, 47, 26, 21, 19, 79, 64, 57, 53, 15, 30, 80, 76, 7, 85, 62, 29, 68, 47, 61, 36, 73, 61, 39, 83, 56, 21, 25, 111, 76, 28, 50, 4, 70, 45, 63, 75, 78, 40
              |36, 57, 54, 68, 39, 74, 40, 46, 25, 4, 83, 52, 41, 42, 67, 84, 64, 58, 52, 80, 91, 58, 64, 31, 38, 61, 95, 81, 21, 71, 66, 54, 39, 89, 26, 69, 47, 33, 54, 8, 12, 64, 76, 71, 69, 63, 32, 67, 46, 79, 29, 34, 62, 6, 45, 38, 16, 21, 44, 76, 54, 26, 55, 19, 15, 30, 28, 81, 57, 65, 26, 92, 20, 57, 44, 83, 50, 64, 60, 27, 60, 56, 76, 47, 40, 49, 13, 78, 44, 37, 25, 61, 46, 99, 16, 14, 40, 79, 41, 82, 47, 70, 87, 70, 43, 63, 42, 40, 73, 91, 64, 35, 35, 47, 92, 20, 37, 27, 84, 53, 60, 9, 41, 41, 27, 36, 27, 36, 84, 84, 14, 31, 26, 69, 34, 17, 26, 59, 78, 20, 10, 26, 45, 85, 86, 66, 49, 67, 44, 93, 74, 13, 62, 41, 16, 25, 80, 25, 77, 66, 55, 42, 21, 72, 18, 23, 14, 74, 51, 49, 67, 38, 21, 24, 69, 31, 83, 63, 67, 19, 81, 35, 76, 79, 89, 70, 46, 55, 52, 44, 35, 68, 32, 62, 69, 6, 40, 50, 34, 30, 20, 60, 56, 66, 25, 71, 28, 46, 12, 64, 102, 68, 57, 40, 74, 74, 18, 75, 16, 66, 73, 65, 60, 18, 68, 15, 60, 65, 15, 24, 57, 82, 39, 10, 22, 39, 33, 28, 46, 54, 14, 67, 34, 25, 34, 67, 29, 23, 6, 24, 28, 60, 66, 51, 34, 12, 36, 32, 21, 46, 55, 30, 21, 42, 46, 9, 65, 74, 28, 48, 34, 15, 65, 66, 23, 80, 46, 30, 78, 51, 33, 30, 46, 76, 18, 63, 65, 27, 16, 104, 58, 6, 55, 25, 74, 57, 44, 56, 62, 17
              |32, 21, 53, 109, 36, 13, 84, 23, 63, 65, 51, 31, 37, 93, 46, 40, 51, 28, 25, 64, 56, 62, 50, 72, 61, 23, 62, 39, 52, 38, 49, 102, 55, 60, 79, 77, 22, 37, 82, 69, 58, 72, 77, 78, 81, 73, 49, 108, 37, 50, 41, 97, 50, 69, 49, 47, 56, 59, 25, 59, 18, 94, 17, 68, 58, 72, 54, 102, 47, 91, 49, 72, 53, 96, 68, 66, 66, 19, 47, 95, 95, 96, 19, 39, 36, 29, 56, 76, 60, 33, 93, 19, 85, 61, 84, 71, 30, 53, 82, 49, 28, 2, 41, 103, 37, 10, 85, 34, 89, 50, 8, 74, 35, 75, 66, 59, 99, 47, 110, 95, 43, 71, 74, 82, 71, 88, 95, 45, 80, 82, 83, 88, 92, 83, 54, 85, 90, 10, 25, 88, 73, 74, 85, 57, 39, 4, 25, 66, 60, 51, 111, 73, 31, 91, 70, 91, 99, 47, 48, 57, 15, 38, 53, 93, 86, 46, 82, 86, 47, 52, 31, 38, 49, 45, 48, 51, 53, 26, 8, 76, 98, 43, 76, 66, 67, 59, 23, 88, 44, 42, 49, 60, 96, 11, 95, 74, 52, 53, 86, 48, 88, 104, 13, 12, 93, 74, 53, 24, 61, 29, 61, 42, 102, 97, 39, 84, 81, 103, 75, 18, 102, 102, 104, 68, 96, 68, 38, 26, 79, 69, 19, 31, 95, 79, 63, 52, 36, 62, 38, 64, 82, 21, 52, 93, 68, 22, 89, 46, 70, 57, 66, 59, 15, 25, 101, 65, 47, 88, 88, 25, 64, 98, 48, 85, 97, 76, 32, 89, 56, 55, 86, 61, 27, 42, 89, 57, 32, 68, 91, 71, 50, 58, 35, 102, 77, 10, 83, 95, 84, 64, 23, 66, 71, 90, 76, 85, 29, 20, 26, 53
              |64, 87, 26, 42, 51, 72, 39, 67, 44, 69, 44, 49, 49, 47, 36, 57, 29, 93, 55, 27, 49, 17, 31, 40, 32, 57, 49, 54, 54, 47, 33, 47, 34, 42, 49, 2, 72, 72, 21, 62, 63, 7, 10, 3, 3, 7, 44, 42, 90, 41, 72, 67, 30, 75, 34, 91, 57, 50, 73, 28, 80, 78, 65, 51, 57, 41, 45, 24, 33, 20, 79, 35, 77, 34, 25, 28, 20, 60, 33, 83, 30, 36, 69, 92, 83, 85, 69, 13, 27, 73, 87, 89, 33, 54, 79, 57, 74, 37, 35, 45, 55, 79, 58, 32, 47, 69, 38, 80, 11, 54, 71, 36, 73, 24, 40, 82, 65, 78, 32, 37, 36, 79, 30, 36, 44, 49, 78, 45, 18, 17, 78, 55, 71, 5, 39, 72, 64, 73, 65, 83, 63, 46, 34, 40, 60, 76, 57, 14, 27, 56, 40, 60, 98, 46, 85, 89, 20, 76, 41, 23, 76, 47, 78, 15, 82, 70, 72, 7, 34, 30, 51, 83, 60, 60, 35, 44, 42, 54, 85, 55, 19, 84, 11, 24, 35, 24, 67, 26, 36, 41, 41, 22, 67, 68, 21, 74, 35, 29, 48, 48, 73, 44, 71, 87, 81, 8, 45, 62, 59, 52, 59, 40, 43, 56, 48, 5, 62, 27, 58, 92, 28, 34, 44, 86, 23, 83, 42, 55, 84, 46, 60, 63, 55, 73, 47, 36, 70, 42, 91, 18, 70, 95, 40, 74, 36, 59, 59, 67, 76, 85, 42, 20, 89, 84, 94, 79, 43, 54, 86, 77, 17, 78, 67, 38, 50, 67, 49, 10, 88, 27, 48, 55, 54, 39, 68, 34, 50, 40, 11, 18, 88, 41, 88, 25, 88, 69, 9, 83, 80, 59, 57, 63, 15, 66, 8, 20, 57, 60, 53, 62
              |70, 96, 47, 13, 61, 93, 15, 77, 37, 57, 76, 66, 60, 16, 63, 86, 56, 100, 71, 61, 82, 41, 57, 28, 35, 76, 83, 83, 52, 73, 60, 11, 41, 76, 29, 37, 81, 74, 17, 47, 55, 37, 46, 39, 33, 35, 48, 13, 93, 72, 72, 37, 56, 61, 48, 89, 51, 44, 80, 61, 90, 52, 79, 38, 50, 28, 45, 31, 55, 18, 76, 71, 71, 2, 29, 63, 32, 81, 57, 57, 7, 0, 92, 94, 85, 91, 62, 49, 36, 77, 63, 99, 11, 89, 59, 42, 79, 69, 16, 76, 68, 96, 88, 15, 59, 86, 14, 84, 30, 86, 89, 24, 76, 21, 75, 74, 34, 75, 31, 3, 60, 64, 22, 16, 31, 21, 51, 52, 53, 52, 58, 28, 44, 32, 43, 49, 38, 87, 90, 61, 46, 31, 12, 73, 89, 92, 71, 46, 36, 88, 18, 43, 105, 16, 72, 67, 32, 73, 71, 53, 87, 58, 72, 26, 60, 68, 51, 35, 52, 46, 75, 84, 57, 60, 63, 46, 75, 76, 99, 36, 34, 83, 47, 59, 70, 55, 77, 10, 55, 54, 47, 52, 38, 85, 20, 58, 44, 46, 22, 51, 49, 9, 85, 100, 56, 43, 46, 73, 50, 74, 93, 67, 7, 24, 75, 37, 41, 22, 40, 103, 19, 9, 9, 74, 18, 71, 64, 77, 66, 34, 77, 90, 24, 54, 39, 44, 73, 37, 93, 37, 49, 106, 44, 48, 29, 81, 32, 66, 61, 78, 33, 45, 102, 91, 68, 68, 50, 27, 64, 84, 38, 50, 64, 14, 16, 49, 73, 32, 82, 43, 22, 46, 76, 65, 43, 67, 64, 31, 36, 28, 84, 39, 91, 25, 72, 86, 27, 57, 60, 93, 75, 51, 30, 40, 43, 16, 68, 77, 75, 57
              |63, 85, 24, 46, 50, 69, 41, 65, 45, 70, 40, 46, 47, 50, 32, 53, 26, 91, 53, 23, 45, 15, 27, 41, 32, 54, 45, 50, 54, 43, 29, 51, 33, 38, 51, 2, 70, 71, 23, 63, 63, 6, 7, 1, 7, 7, 43, 46, 89, 37, 71, 69, 27, 76, 33, 89, 57, 50, 71, 24, 78, 80, 62, 52, 57, 42, 45, 27, 30, 24, 79, 32, 76, 38, 26, 25, 20, 57, 30, 85, 33, 39, 65, 90, 81, 84, 69, 10, 27, 71, 88, 87, 36, 50, 81, 59, 72, 33, 38, 41, 52, 76, 55, 36, 45, 66, 41, 79, 15, 50, 69, 38, 71, 26, 36, 82, 68, 77, 35, 41, 33, 79, 32, 38, 45, 51, 80, 43, 15, 15, 79, 57, 73, 9, 39, 73, 67, 70, 61, 85, 64, 48, 37, 36, 56, 73, 55, 11, 27, 52, 44, 61, 96, 49, 85, 91, 24, 75, 37, 20, 73, 45, 77, 19, 83, 70, 73, 10, 31, 28, 47, 82, 59, 60, 31, 43, 38, 51, 82, 56, 22, 82, 8, 20, 31, 20, 65, 29, 34, 39, 41, 18, 69, 65, 25, 75, 35, 27, 51, 48, 75, 48, 69, 85, 83, 4, 45, 60, 59, 48, 55, 37, 47, 59, 44, 8, 64, 31, 59, 89, 32, 38, 48, 86, 27, 83, 39, 52, 84, 47, 57, 60, 57, 75, 48, 36, 69, 43, 90, 17, 71, 92, 39, 76, 37, 56, 61, 67, 76, 84, 42, 17, 87, 82, 96, 79, 42, 56, 87, 76, 16, 80, 66, 41, 53, 68, 46, 14, 87, 26, 51, 55, 51, 36, 70, 30, 48, 41, 14, 19, 87, 41, 87, 29, 88, 66, 13, 85, 82, 55, 54, 64, 16, 68, 4, 23, 55, 57, 50, 62
              |67, 87, 27, 54, 53, 67, 50, 67, 52, 77, 35, 48, 50, 59, 30, 48, 25, 94, 54, 16, 38, 20, 27, 50, 39, 54, 37, 46, 60, 40, 28, 60, 39, 31, 60, 11, 73, 75, 33, 71, 70, 14, 2, 9, 15, 16, 49, 54, 92, 32, 76, 78, 27, 83, 37, 94, 64, 57, 74, 19, 80, 89, 63, 60, 64, 51, 51, 32, 31, 32, 84, 23, 82, 47, 34, 17, 28, 57, 30, 93, 42, 48, 63, 94, 85, 87, 75, 1, 34, 75, 97, 88, 45, 43, 89, 66, 76, 28, 47, 35, 55, 75, 50, 44, 49, 67, 50, 82, 21, 44, 69, 47, 76, 35, 28, 88, 77, 82, 41, 50, 33, 86, 40, 48, 53, 60, 89, 48, 6, 7, 87, 66, 82, 17, 45, 82, 75, 71, 59, 93, 72, 56, 46, 30, 51, 73, 57, 12, 34, 46, 52, 69, 98, 58, 92, 99, 28, 80, 33, 19, 75, 48, 83, 26, 91, 75, 81, 16, 34, 32, 46, 86, 65, 65, 29, 49, 32, 50, 83, 65, 27, 87, 1, 13, 23, 18, 67, 38, 36, 43, 46, 17, 78, 65, 33, 83, 40, 31, 60, 53, 83, 56, 70, 85, 91, 7, 51, 62, 66, 48, 48, 35, 55, 68, 41, 13, 72, 38, 67, 91, 39, 46, 56, 93, 35, 90, 39, 51, 92, 55, 58, 56, 66, 83, 55, 41, 73, 50, 93, 24, 80, 94, 45, 85, 45, 54, 70, 72, 83, 90, 50, 20, 88, 85, 104, 86, 47, 65, 95, 78, 22, 88, 72, 50, 62, 76, 45, 20, 93, 31, 60, 63, 50, 34, 79, 24, 51, 49, 18, 28, 92, 48, 90, 35, 96, 67, 21, 93, 90, 47, 54, 71, 24, 77, 5, 32, 57, 58, 50, 68
              |14, 14, 48, 97, 23, 28, 70, 7, 48, 46, 57, 26, 25, 78, 47, 50, 49, 20, 20, 65, 64, 57, 48, 57, 49, 25, 69, 49, 35, 42, 48, 88, 44, 66, 62, 72, 3, 17, 72, 51, 39, 67, 74, 73, 75, 67, 36, 96, 22, 55, 21, 79, 47, 50, 40, 29, 38, 43, 5, 60, 6, 75, 13, 51, 40, 57, 39, 95, 43, 82, 30, 75, 33, 84, 57, 68, 57, 25, 44, 76, 84, 84, 33, 24, 18, 14, 37, 74, 50, 13, 73, 16, 72, 70, 65, 53, 10, 57, 68, 55, 19, 21, 52, 93, 27, 17, 72, 15, 83, 60, 18, 60, 15, 64, 71, 39, 82, 27, 102, 82, 41, 52, 61, 68, 56, 73, 76, 32, 79, 80, 63, 72, 74, 77, 41, 66, 72, 11, 38, 68, 55, 58, 72, 62, 50, 18, 17, 62, 50, 61, 100, 55, 25, 76, 51, 72, 93, 27, 52, 55, 5, 28, 34, 85, 67, 27, 63, 81, 40, 44, 35, 20, 31, 27, 49, 37, 59, 29, 18, 59, 92, 24, 73, 67, 71, 58, 7, 77, 38, 33, 36, 58, 78, 17, 86, 55, 41, 45, 71, 33, 69, 91, 9, 17, 74, 70, 38, 12, 43, 32, 72, 44, 89, 81, 44, 79, 63, 94, 57, 20, 93, 90, 91, 48, 87, 48, 37, 30, 59, 53, 19, 43, 79, 60, 47, 40, 16, 47, 23, 56, 63, 22, 39, 74, 54, 29, 72, 26, 51, 37, 51, 55, 18, 11, 82, 45, 34, 72, 68, 7, 57, 79, 28, 72, 82, 57, 35, 83, 37, 47, 71, 44, 31, 43, 71, 60, 23, 53, 85, 62, 32, 44, 20, 93, 58, 17, 75, 76, 65, 74, 23, 47, 62, 72, 73, 75, 17, 18, 29, 34
              |62, 87, 36, 23, 51, 82, 13, 67, 31, 53, 65, 55, 50, 21, 52, 75, 45, 92, 61, 51, 72, 30, 46, 22, 25, 66, 72, 72, 44, 62, 49, 21, 31, 66, 27, 28, 72, 67, 7, 44, 50, 27, 37, 30, 25, 25, 39, 22, 85, 61, 65, 41, 45, 58, 37, 82, 45, 37, 72, 50, 81, 54, 69, 34, 44, 22, 37, 29, 44, 13, 69, 61, 65, 10, 18, 53, 21, 70, 46, 59, 9, 11, 81, 87, 77, 83, 56, 40, 26, 69, 64, 90, 7, 78, 58, 39, 71, 58, 11, 65, 58, 86, 77, 19, 49, 76, 13, 76, 24, 75, 78, 17, 68, 11, 65, 69, 39, 69, 32, 11, 49, 61, 13, 12, 25, 23, 53, 42, 45, 44, 57, 30, 46, 23, 33, 49, 40, 77, 79, 61, 43, 26, 8, 63, 78, 82, 61, 35, 26, 77, 26, 40, 97, 19, 69, 67, 29, 67, 61, 42, 78, 48, 66, 22, 60, 61, 50, 27, 41, 35, 64, 77, 50, 53, 52, 38, 64, 65, 90, 34, 30, 76, 38, 49, 60, 44, 67, 3, 44, 44, 38, 41, 41, 75, 17, 55, 34, 35, 23, 42, 50, 20, 75, 91, 57, 33, 37, 64, 44, 63, 83, 56, 18, 29, 64, 29, 40, 23, 37, 94, 21, 16, 20, 70, 16, 67, 54, 66, 64, 29, 67, 79, 28, 53, 33, 34, 65, 29, 86, 26, 48, 97, 35, 50, 21, 70, 34, 59, 58, 72, 26, 34, 92, 83, 70, 64, 40, 29, 64, 76, 27, 53, 58, 13, 23, 47, 62, 25, 76, 32, 23, 41, 65, 54, 44, 56, 54, 24, 30, 17, 78, 31, 84, 24, 69, 76, 18, 59, 59, 83, 65, 47, 19, 42, 34, 7, 58, 66, 64, 51
              |48, 52, 40, 98, 41, 19, 80, 41, 64, 77, 21, 28, 39, 90, 25, 8, 32, 59, 28, 38, 24, 47, 31, 70, 56, 20, 30, 8, 59, 14, 28, 96, 50, 30, 79, 58, 44, 56, 70, 78, 69, 54, 54, 58, 63, 56, 51, 98, 65, 22, 59, 100, 31, 83, 42, 72, 64, 64, 47, 34, 45, 103, 30, 72, 66, 70, 56, 84, 32, 77, 69, 42, 71, 86, 59, 39, 55, 18, 30, 105, 84, 87, 13, 66, 61, 57, 70, 52, 52, 53, 105, 50, 78, 29, 96, 77, 51, 25, 76, 19, 34, 30, 9, 90, 38, 27, 80, 58, 71, 18, 27, 70, 55, 66, 35, 78, 101, 67, 92, 87, 27, 86, 67, 76, 71, 87, 103, 46, 55, 57, 94, 89, 98, 65, 53, 94, 94, 34, 7, 100, 81, 74, 78, 27, 7, 30, 33, 46, 52, 19, 98, 80, 62, 88, 88, 105, 80, 66, 20, 37, 41, 39, 72, 75, 98, 63, 91, 67, 36, 42, 14, 63, 60, 57, 25, 52, 24, 17, 40, 80, 79, 66, 53, 41, 38, 36, 41, 77, 34, 39, 48, 39, 100, 26, 80, 87, 48, 42, 85, 51, 96, 96, 35, 44, 103, 53, 55, 37, 70, 16, 29, 20, 94, 96, 13, 64, 87, 87, 80, 50, 87, 90, 96, 86, 81, 85, 23, 15, 94, 70, 25, 3, 94, 90, 66, 48, 54, 62, 65, 50, 90, 53, 51, 100, 64, 14, 91, 61, 84, 77, 66, 43, 47, 53, 114, 81, 47, 89, 101, 50, 49, 105, 62, 80, 94, 85, 16, 70, 78, 45, 85, 68, 15, 22, 95, 30, 34, 66, 70, 59, 74, 58, 63, 85, 94, 27, 66, 105, 96, 32, 23, 75, 57, 95, 55, 73, 37, 27, 18, 64
              |46, 63, 67, 77, 51, 83, 51, 55, 38, 15, 96, 64, 53, 51, 80, 96, 77, 62, 63, 93, 103, 71, 76, 43, 51, 72, 108, 93, 34, 83, 79, 62, 52, 102, 36, 82, 54, 40, 66, 20, 23, 77, 89, 84, 82, 76, 45, 76, 49, 92, 36, 37, 75, 8, 58, 39, 29, 34, 52, 89, 61, 24, 64, 31, 28, 42, 41, 92, 70, 76, 29, 105, 25, 67, 57, 96, 63, 75, 73, 22, 70, 65, 86, 49, 44, 53, 22, 91, 57, 44, 17, 67, 57, 111, 10, 25, 47, 92, 52, 94, 58, 79, 98, 80, 54, 72, 52, 46, 85, 103, 73, 47, 42, 59, 104, 20, 40, 31, 95, 62, 73, 6, 53, 51, 39, 45, 25, 49, 97, 97, 10, 38, 28, 81, 47, 18, 31, 67, 89, 12, 20, 37, 56, 97, 98, 75, 59, 80, 57, 105, 83, 23, 65, 50, 10, 15, 92, 31, 89, 79, 62, 54, 24, 84, 11, 30, 16, 86, 64, 62, 79, 42, 32, 35, 81, 44, 96, 75, 74, 29, 93, 38, 89, 92, 102, 83, 55, 66, 65, 56, 48, 81, 35, 72, 80, 8, 53, 63, 43, 42, 21, 68, 64, 73, 20, 84, 41, 56, 25, 76, 114, 80, 66, 47, 86, 87, 25, 86, 26, 72, 83, 74, 68, 13, 80, 11, 72, 77, 2, 36, 68, 93, 46, 11, 35, 52, 41, 41, 49, 67, 17, 72, 47, 25, 47, 78, 35, 32, 8, 24, 41, 73, 72, 57, 25, 12, 48, 39, 11, 53, 68, 29, 30, 52, 53, 16, 77, 86, 28, 61, 43, 28, 77, 78, 26, 92, 57, 42, 90, 64, 33, 43, 49, 88, 6, 72, 77, 22, 10, 116, 69, 19, 67, 29, 87, 69, 55, 66, 74, 28
              |69, 91, 30, 44, 56, 74, 43, 71, 49, 74, 44, 52, 53, 52, 37, 57, 31, 97, 59, 26, 48, 21, 33, 45, 37, 59, 47, 55, 59, 48, 34, 51, 38, 41, 54, 6, 76, 77, 25, 67, 68, 11, 8, 4, 6, 12, 49, 45, 94, 41, 76, 71, 33, 81, 39, 95, 62, 55, 77, 28, 84, 83, 68, 56, 62, 46, 50, 23, 35, 22, 84, 33, 81, 37, 30, 27, 25, 63, 35, 88, 33, 39, 70, 96, 87, 89, 74, 11, 32, 77, 92, 92, 38, 53, 84, 63, 78, 37, 40, 45, 58, 81, 59, 34, 51, 72, 43, 85, 11, 54, 74, 41, 77, 29, 38, 87, 70, 83, 31, 41, 39, 84, 35, 41, 49, 53, 83, 49, 14, 13, 83, 60, 76, 8, 44, 77, 69, 76, 66, 88, 68, 52, 39, 39, 60, 79, 61, 16, 32, 56, 42, 65, 102, 50, 90, 95, 19, 80, 42, 25, 79, 51, 82, 16, 87, 75, 77, 6, 37, 34, 53, 87, 64, 65, 36, 49, 42, 57, 88, 60, 17, 88, 9, 23, 33, 25, 71, 30, 40, 45, 46, 23, 72, 71, 23, 79, 40, 33, 53, 53, 78, 47, 74, 90, 86, 9, 50, 66, 64, 54, 58, 42, 46, 60, 49, 3, 67, 28, 63, 95, 29, 37, 47, 91, 25, 88, 45, 57, 89, 51, 63, 64, 59, 79, 52, 41, 75, 47, 95, 23, 75, 98, 45, 79, 41, 61, 64, 72, 81, 89, 47, 23, 93, 88, 99, 84, 48, 59, 91, 81, 22, 82, 72, 43, 54, 72, 51, 10, 93, 32, 53, 60, 56, 41, 73, 34, 54, 45, 9, 23, 93, 46, 92, 25, 93, 72, 13, 88, 85, 57, 59, 68, 20, 71, 6, 24, 60, 63, 56, 67
              |64, 82, 27, 65, 51, 59, 58, 63, 55, 79, 24, 43, 48, 67, 23, 38, 20, 89, 49, 6, 27, 22, 21, 55, 43, 47, 26, 36, 61, 32, 21, 69, 41, 20, 65, 21, 69, 73, 41, 74, 71, 21, 13, 19, 25, 23, 49, 65, 89, 22, 74, 85, 22, 85, 37, 92, 65, 60, 70, 10, 75, 94, 58, 64, 66, 56, 53, 43, 27, 42, 83, 14, 82, 56, 39, 6, 33, 50, 25, 98, 52, 58, 54, 91, 82, 83, 76, 10, 37, 72, 101, 83, 53, 32, 93, 70, 73, 18, 54, 25, 51, 68, 39, 55, 46, 60, 58, 80, 32, 33, 62, 52, 73, 42, 17, 88, 84, 81, 52, 59, 28, 89, 47, 55, 58, 67, 94, 48, 11, 14, 91, 73, 87, 27, 47, 87, 81, 65, 50, 97, 76, 61, 54, 19, 41, 66, 52, 14, 37, 35, 62, 73, 94, 66, 94, 103, 39, 79, 23, 15, 70, 46, 83, 37, 95, 74, 86, 27, 32, 32, 38, 83, 65, 65, 21, 50, 22, 43, 76, 70, 38, 85, 12, 3, 13, 12, 63, 47, 33, 41, 46, 13, 85, 59, 43, 86, 41, 31, 67, 53, 88, 66, 64, 79, 96, 15, 52, 58, 69, 40, 37, 27, 65, 76, 32, 24, 77, 49, 72, 85, 50, 57, 66, 94, 46, 91, 33, 44, 95, 59, 52, 46, 74, 86, 59, 42, 71, 53, 90, 27, 84, 88, 46, 90, 49, 47, 76, 71, 86, 90, 54, 21, 82, 81, 109, 87, 47, 72, 99, 75, 26, 94, 72, 58, 70, 80, 37, 31, 92, 32, 67, 65, 42, 27, 85, 14, 47, 53, 29, 34, 91, 51, 87, 46, 98, 60, 31, 98, 94, 36, 48, 74, 30, 83, 15, 42, 54, 53, 43, 69
              |34, 53, 57, 74, 40, 72, 47, 43, 30, 5, 85, 52, 42, 49, 69, 85, 66, 53, 52, 82, 92, 62, 66, 37, 42, 61, 97, 82, 23, 72, 68, 60, 43, 91, 33, 73, 44, 30, 60, 14, 13, 69, 80, 75, 74, 67, 34, 73, 41, 81, 25, 39, 64, 3, 47, 33, 18, 24, 41, 78, 51, 30, 53, 25, 18, 36, 31, 86, 60, 70, 20, 95, 15, 63, 49, 86, 54, 63, 62, 30, 66, 62, 75, 41, 35, 44, 10, 82, 48, 34, 27, 57, 52, 100, 18, 20, 37, 81, 47, 83, 46, 68, 87, 76, 43, 61, 48, 36, 78, 92, 62, 41, 32, 52, 94, 14, 43, 22, 90, 59, 62, 6, 46, 46, 33, 42, 31, 38, 88, 88, 17, 38, 31, 74, 37, 22, 32, 56, 77, 22, 16, 32, 51, 87, 86, 64, 48, 70, 48, 94, 80, 19, 57, 48, 11, 25, 86, 21, 78, 69, 52, 43, 15, 78, 20, 20, 19, 79, 53, 52, 67, 33, 21, 23, 70, 34, 85, 63, 64, 26, 87, 30, 80, 82, 92, 73, 43, 61, 54, 45, 38, 71, 38, 60, 75, 9, 43, 53, 40, 31, 25, 66, 53, 63, 28, 75, 31, 45, 15, 64, 103, 69, 63, 47, 74, 79, 24, 81, 22, 62, 78, 71, 66, 12, 74, 9, 61, 65, 14, 29, 56, 82, 45, 14, 27, 42, 30, 32, 41, 58, 20, 63, 37, 30, 39, 66, 35, 21, 4, 18, 33, 63, 62, 47, 35, 6, 38, 38, 22, 42, 59, 35, 19, 48, 52, 15, 66, 79, 22, 52, 40, 19, 65, 67, 29, 82, 46, 35, 83, 56, 27, 34, 41, 82, 15, 61, 70, 30, 18, 105, 58, 11, 59, 31, 78, 63, 44, 55, 62, 16
              |16, 26, 36, 89, 16, 22, 65, 9, 43, 48, 44, 14, 17, 74, 34, 38, 37, 32, 8, 52, 51, 45, 35, 52, 42, 13, 57, 36, 33, 29, 35, 83, 36, 53, 59, 61, 13, 24, 63, 51, 40, 55, 62, 62, 65, 56, 30, 89, 34, 42, 28, 78, 35, 54, 30, 40, 38, 40, 16, 47, 18, 77, 3, 49, 40, 52, 34, 85, 31, 73, 38, 62, 40, 76, 48, 55, 48, 14, 32, 78, 76, 77, 24, 36, 29, 27, 40, 61, 41, 21, 77, 26, 66, 58, 68, 52, 20, 44, 62, 42, 9, 20, 40, 85, 18, 11, 66, 26, 72, 47, 13, 54, 23, 56, 58, 47, 80, 35, 92, 75, 29, 56, 54, 62, 51, 69, 78, 25, 66, 68, 66, 69, 74, 66, 34, 67, 71, 11, 28, 72, 55, 54, 65, 49, 39, 16, 6, 50, 41, 49, 92, 55, 37, 72, 57, 76, 82, 34, 39, 43, 13, 19, 40, 75, 70, 32, 65, 70, 29, 34, 22, 31, 32, 28, 36, 32, 46, 16, 23, 57, 81, 34, 61, 54, 58, 45, 9, 69, 26, 23, 29, 45, 77, 10, 77, 58, 33, 35, 67, 28, 70, 85, 8, 25, 76, 58, 33, 6, 43, 19, 59, 31, 82, 77, 31, 68, 63, 85, 56, 29, 84, 82, 85, 55, 78, 54, 24, 18, 64, 49, 7, 33, 75, 62, 44, 32, 23, 43, 35, 46, 64, 32, 33, 75, 48, 17, 70, 30, 55, 45, 47, 43, 27, 24, 85, 51, 27, 69, 72, 19, 46, 80, 32, 66, 78, 58, 22, 72, 46, 37, 67, 42, 19, 30, 71, 47, 13, 48, 74, 52, 42, 39, 32, 84, 64, 11, 65, 78, 68, 62, 10, 48, 52, 72, 61, 66, 9, 5, 16, 35
              |56, 81, 25, 34, 44, 72, 22, 60, 29, 54, 53, 46, 42, 31, 40, 63, 33, 86, 52, 39, 59, 18, 34, 23, 19, 56, 60, 60, 41, 50, 37, 34, 23, 53, 32, 17, 65, 62, 6, 46, 49, 15, 26, 19, 16, 13, 33, 33, 80, 49, 61, 50, 33, 60, 28, 79, 43, 36, 65, 38, 74, 61, 60, 35, 43, 24, 33, 29, 33, 15, 67, 50, 64, 22, 11, 41, 10, 60, 34, 66, 19, 23, 70, 82, 73, 77, 55, 29, 17, 63, 70, 83, 17, 66, 63, 41, 65, 46, 18, 53, 49, 77, 65, 27, 40, 67, 22, 71, 19, 63, 69, 20, 63, 7, 53, 68, 49, 66, 35, 24, 38, 63, 13, 19, 27, 32, 61, 35, 34, 34, 62, 38, 54, 15, 28, 55, 48, 69, 67, 66, 47, 30, 18, 50, 66, 73, 52, 23, 17, 65, 35, 44, 91, 30, 70, 73, 28, 64, 48, 29, 70, 40, 65, 19, 65, 58, 55, 20, 30, 25, 52, 73, 47, 49, 40, 32, 51, 54, 81, 38, 28, 72, 27, 37, 48, 32, 60, 13, 34, 35, 31, 29, 50, 65, 19, 58, 26, 24, 31, 37, 56, 32, 66, 83, 64, 22, 33, 56, 44, 52, 71, 44, 30, 40, 52, 21, 46, 27, 41, 86, 26, 26, 32, 71, 20, 68, 42, 56, 67, 30, 57, 67, 38, 57, 32, 27, 60, 27, 81, 14, 53, 89, 29, 57, 20, 59, 42, 56, 60, 71, 26, 22, 85, 77, 77, 64, 33, 37, 69, 70, 15, 61, 55, 22, 34, 51, 50, 20, 75, 21, 31, 40, 54, 42, 51, 44, 45, 24, 24, 6, 76, 28, 79, 26, 72, 67, 11, 66, 64, 71, 55, 48, 7, 49, 23, 9, 50, 57, 53, 49
              |67, 78, 40, 88, 56, 48, 78, 63, 70, 90, 10, 44, 53, 88, 25, 21, 29, 85, 48, 19, 5, 41, 29, 72, 58, 42, 3, 21, 71, 25, 26, 91, 54, 4, 83, 44, 68, 76, 63, 87, 82, 43, 37, 43, 49, 46, 60, 88, 89, 13, 78, 103, 30, 97, 48, 94, 76, 72, 70, 20, 71, 110, 54, 78, 77, 73, 65, 67, 35, 66, 89, 15, 89, 79, 57, 18, 51, 43, 32, 114, 75, 80, 42, 91, 84, 81, 85, 34, 53, 74, 115, 77, 74, 8, 106, 85, 74, 13, 74, 12, 52, 58, 21, 78, 51, 53, 78, 80, 56, 12, 54, 71, 76, 62, 8, 96, 103, 86, 75, 81, 32, 100, 66, 75, 75, 87, 110, 56, 34, 36, 105, 92, 104, 51, 59, 102, 99, 60, 36, 111, 90, 78, 75, 8, 23, 58, 52, 35, 53, 13, 86, 88, 89, 86, 103, 117, 63, 85, 16, 29, 66, 52, 90, 61, 109, 81, 100, 51, 41, 45, 32, 85, 74, 72, 24, 61, 9, 38, 68, 86, 61, 88, 36, 22, 13, 26, 63, 70, 40, 49, 57, 29, 103, 52, 67, 98, 53, 44, 86, 63, 104, 89, 60, 72, 112, 38, 64, 58, 81, 35, 13, 25, 88, 96, 23, 48, 93, 73, 87, 78, 74, 80, 89, 103, 69, 101, 34, 37, 107, 75, 48, 31, 94, 100, 73, 54, 74, 68, 90, 46, 99, 81, 58, 107, 66, 39, 95, 78, 97, 96, 70, 37, 75, 78, 124, 97, 57, 91, 112, 74, 44, 111, 79, 78, 91, 94, 32, 55, 98, 46, 86, 77, 36, 27, 101, 14, 50, 70, 53, 54, 95, 64, 87, 70, 109, 53, 55, 114, 107, 13, 44, 86, 51, 100, 39, 64, 55, 49, 38, 78
              |61, 69, 40, 93, 51, 38, 80, 56, 69, 86, 8, 39, 49, 90, 23, 10, 29, 76, 41, 26, 6, 43, 29, 72, 58, 34, 12, 11, 68, 19, 25, 94, 54, 13, 83, 50, 60, 70, 67, 85, 78, 48, 44, 49, 55, 50, 57, 93, 81, 12, 72, 104, 30, 93, 46, 87, 73, 70, 62, 24, 62, 109, 46, 77, 74, 73, 62, 75, 33, 71, 83, 25, 83, 83, 59, 26, 53, 34, 31, 112, 79, 84, 32, 83, 76, 73, 81, 41, 53, 67, 113, 68, 77, 11, 104, 83, 66, 15, 76, 9, 46, 49, 10, 84, 47, 44, 80, 73, 63, 2, 45, 72, 69, 65, 18, 91, 104, 80, 83, 85, 29, 96, 67, 77, 74, 88, 109, 53, 42, 44, 103, 92, 104, 57, 58, 100, 99, 51, 26, 108, 88, 78, 77, 13, 13, 48, 46, 39, 53, 4, 92, 86, 80, 88, 99, 114, 71, 79, 13, 32, 57, 48, 84, 67, 107, 75, 99, 58, 39, 44, 25, 78, 70, 67, 22, 59, 10, 30, 58, 85, 69, 81, 43, 29, 22, 29, 56, 74, 38, 45, 55, 32, 103, 43, 73, 95, 52, 43, 87, 59, 103, 93, 51, 62, 110, 44, 62, 51, 78, 28, 13, 21, 91, 97, 16, 55, 92, 79, 86, 68, 80, 85, 93, 98, 75, 96, 29, 29, 103, 74, 40, 20, 95, 98, 71, 52, 68, 67, 82, 48, 97, 71, 56, 106, 67, 30, 95, 73, 94, 90, 70, 39, 65, 70, 122, 92, 54, 92, 110, 66, 47, 111, 74, 80, 94, 92, 25, 62, 92, 46, 87, 75, 28, 23, 101, 18, 45, 69, 60, 57, 88, 63, 79, 77, 105, 44, 60, 112, 105, 15, 37, 83, 54, 100, 46, 68, 49, 41, 31, 74
              |43, 47, 38, 97, 37, 16, 77, 36, 61, 73, 23, 25, 35, 87, 24, 12, 31, 54, 24, 39, 27, 46, 30, 67, 53, 16, 34, 11, 56, 13, 27, 94, 48, 32, 76, 58, 40, 52, 69, 74, 65, 54, 55, 58, 63, 55, 47, 96, 60, 24, 55, 97, 30, 79, 39, 68, 61, 60, 42, 35, 41, 99, 26, 68, 62, 67, 53, 84, 30, 76, 65, 44, 67, 85, 57, 40, 53, 14, 29, 102, 82, 85, 10, 62, 56, 52, 66, 53, 50, 49, 101, 46, 76, 33, 92, 73, 47, 27, 74, 21, 30, 26, 13, 89, 34, 22, 78, 53, 71, 22, 23, 67, 50, 64, 38, 74, 98, 62, 92, 85, 25, 82, 65, 74, 68, 84, 100, 42, 56, 58, 90, 86, 95, 64, 50, 90, 91, 30, 5, 96, 77, 71, 76, 30, 12, 26, 28, 46, 50, 23, 97, 76, 58, 85, 83, 101, 80, 61, 21, 37, 36, 35, 67, 75, 95, 59, 88, 67, 34, 40, 11, 58, 56, 53, 25, 49, 26, 13, 36, 77, 79, 62, 54, 42, 40, 36, 36, 76, 31, 35, 45, 38, 96, 22, 79, 83, 45, 40, 82, 48, 93, 94, 30, 40, 99, 53, 52, 33, 66, 13, 33, 20, 92, 93, 13, 64, 83, 86, 77, 46, 86, 89, 94, 82, 81, 81, 21, 11, 90, 67, 21, 6, 91, 86, 63, 45, 50, 59, 61, 49, 87, 49, 48, 97, 62, 10, 88, 57, 80, 73, 63, 42, 43, 49, 110, 77, 44, 86, 97, 45, 48, 102, 58, 78, 91, 81, 13, 70, 73, 43, 82, 64, 11, 21, 92, 31, 31, 63, 70, 58, 69, 55, 58, 84, 90, 22, 66, 102, 92, 36, 18, 71, 56, 92, 55, 71, 33, 22, 14, 60
              |33, 59, 29, 51, 26, 62, 23, 40, 1, 26, 60, 36, 26, 31, 44, 65, 40, 63, 39, 54, 68, 32, 40, 10, 12, 46, 71, 62, 14, 51, 43, 41, 14, 65, 17, 42, 44, 37, 30, 20, 20, 38, 49, 44, 43, 36, 13, 50, 55, 56, 35, 38, 38, 32, 22, 52, 15, 7, 43, 51, 53, 42, 45, 10, 14, 10, 8, 57, 34, 41, 39, 67, 35, 38, 18, 57, 23, 50, 37, 45, 39, 38, 63, 57, 47, 53, 27, 51, 17, 39, 47, 62, 26, 76, 39, 16, 42, 55, 22, 59, 34, 63, 67, 49, 26, 53, 25, 46, 48, 69, 55, 13, 38, 22, 67, 40, 39, 39, 62, 36, 38, 36, 17, 21, 9, 26, 42, 18, 57, 58, 37, 27, 36, 43, 10, 33, 32, 52, 63, 43, 22, 12, 25, 61, 67, 59, 37, 40, 17, 71, 55, 19, 68, 29, 42, 49, 56, 36, 54, 41, 51, 25, 36, 48, 41, 31, 32, 48, 28, 24, 49, 47, 20, 23, 45, 11, 60, 47, 64, 17, 56, 46, 50, 53, 64, 44, 40, 33, 30, 24, 14, 42, 37, 52, 46, 32, 16, 25, 24, 15, 35, 45, 49, 64, 43, 44, 9, 38, 16, 47, 80, 46, 42, 35, 53, 48, 25, 53, 18, 67, 51, 45, 45, 43, 46, 40, 40, 49, 41, 7, 45, 65, 33, 32, 4, 15, 35, 1, 56, 28, 30, 69, 12, 39, 9, 52, 29, 29, 33, 43, 4, 34, 65, 54, 55, 36, 16, 27, 45, 47, 29, 43, 27, 25, 35, 26, 47, 48, 47, 23, 24, 12, 49, 44, 33, 55, 31, 6, 52, 25, 48, 4, 54, 53, 45, 53, 39, 45, 39, 81, 44, 20, 28, 33, 47, 34, 33, 44, 46, 21
              |61, 83, 22, 49, 48, 66, 42, 63, 44, 69, 37, 44, 45, 52, 29, 50, 23, 89, 50, 20, 42, 13, 24, 42, 32, 51, 42, 47, 53, 40, 26, 53, 32, 35, 52, 5, 68, 69, 25, 63, 62, 6, 6, 4, 10, 8, 42, 49, 87, 34, 69, 70, 24, 76, 31, 88, 56, 50, 69, 21, 75, 81, 59, 52, 56, 42, 44, 30, 27, 26, 77, 30, 75, 40, 26, 22, 20, 54, 27, 85, 36, 42, 62, 89, 79, 82, 68, 9, 26, 69, 89, 84, 38, 48, 81, 59, 70, 30, 39, 37, 50, 73, 51, 39, 43, 64, 42, 77, 18, 47, 66, 39, 70, 27, 34, 81, 69, 76, 39, 43, 30, 79, 32, 40, 45, 52, 80, 42, 14, 15, 79, 58, 73, 12, 38, 74, 67, 68, 58, 85, 64, 48, 38, 33, 53, 70, 52, 8, 26, 49, 47, 61, 94, 50, 85, 91, 27, 74, 34, 17, 71, 43, 76, 22, 83, 68, 73, 13, 29, 26, 44, 80, 58, 58, 28, 42, 35, 48, 80, 57, 26, 81, 7, 17, 29, 17, 63, 31, 31, 37, 39, 15, 70, 62, 28, 75, 33, 25, 52, 46, 75, 50, 66, 82, 83, 1, 44, 58, 59, 45, 53, 34, 49, 60, 41, 11, 64, 34, 59, 87, 35, 41, 50, 85, 30, 83, 36, 49, 84, 47, 55, 56, 59, 75, 48, 34, 67, 42, 88, 16, 72, 90, 38, 77, 37, 53, 62, 65, 76, 83, 42, 15, 84, 80, 96, 79, 40, 57, 87, 73, 15, 80, 65, 42, 54, 68, 43, 17, 86, 24, 52, 55, 48, 32, 71, 27, 46, 41, 17, 20, 86, 40, 85, 32, 88, 64, 15, 85, 82, 52, 51, 64, 16, 69, 4, 25, 52, 55, 47, 61
              |41, 59, 10, 68, 28, 40, 51, 40, 40, 60, 22, 20, 25, 61, 6, 29, 3, 66, 26, 20, 30, 16, 2, 43, 29, 25, 33, 26, 41, 16, 4, 66, 24, 27, 53, 29, 45, 50, 40, 57, 51, 25, 29, 30, 34, 26, 30, 67, 66, 18, 51, 74, 1, 66, 17, 69, 46, 42, 47, 15, 52, 80, 35, 48, 47, 43, 34, 55, 4, 47, 61, 32, 60, 56, 30, 23, 25, 29, 2, 83, 53, 57, 37, 68, 59, 59, 56, 28, 24, 49, 85, 60, 49, 38, 76, 54, 49, 17, 47, 21, 27, 47, 31, 60, 23, 38, 51, 56, 42, 31, 40, 42, 50, 36, 30, 67, 75, 59, 63, 57, 5, 69, 38, 48, 45, 59, 80, 26, 33, 34, 75, 63, 74, 36, 29, 71, 69, 43, 34, 80, 59, 49, 49, 23, 32, 45, 29, 18, 24, 34, 68, 57, 71, 59, 74, 86, 52, 57, 16, 9, 47, 23, 61, 46, 79, 52, 70, 39, 11, 14, 19, 60, 44, 43, 7, 31, 22, 23, 54, 56, 51, 62, 28, 21, 28, 11, 40, 47, 10, 19, 27, 12, 74, 37, 50, 68, 23, 14, 57, 33, 74, 66, 42, 57, 81, 25, 34, 35, 50, 20, 41, 10, 64, 68, 18, 36, 63, 57, 57, 62, 57, 60, 66, 74, 52, 71, 11, 24, 77, 45, 30, 33, 66, 70, 42, 23, 48, 38, 67, 20, 69, 65, 28, 77, 37, 27, 65, 49, 67, 68, 40, 13, 60, 57, 93, 67, 26, 62, 82, 51, 19, 81, 50, 51, 65, 64, 17, 42, 70, 17, 57, 47, 22, 8, 71, 18, 24, 40, 43, 29, 68, 34, 64, 55, 79, 38, 37, 83, 77, 43, 26, 56, 27, 70, 28, 42, 30, 30, 22, 48
              |71, 90, 33, 63, 58, 67, 59, 71, 60, 84, 31, 51, 55, 69, 31, 45, 28, 97, 57, 13, 33, 27, 29, 58, 47, 55, 30, 43, 67, 40, 29, 69, 46, 25, 69, 21, 76, 80, 42, 79, 77, 23, 11, 19, 24, 25, 56, 63, 97, 29, 81, 87, 30, 91, 43, 99, 71, 65, 78, 18, 83, 98, 66, 68, 71, 59, 58, 39, 35, 41, 90, 15, 88, 56, 43, 12, 36, 58, 33, 102, 51, 57, 62, 98, 90, 90, 82, 8, 41, 80, 105, 91, 54, 36, 97, 75, 80, 25, 56, 32, 58, 76, 46, 52, 53, 68, 59, 87, 29, 39, 70, 55, 80, 44, 21, 95, 86, 88, 47, 59, 36, 94, 49, 57, 62, 69, 97, 54, 5, 7, 96, 75, 90, 26, 52, 90, 84, 73, 57, 101, 80, 65, 55, 25, 48, 74, 60, 19, 41, 41, 60, 77, 102, 67, 100, 107, 35, 86, 31, 22, 78, 53, 89, 34, 100, 81, 90, 24, 39, 38, 46, 91, 72, 71, 30, 56, 28, 51, 84, 73, 33, 92, 11, 11, 16, 20, 71, 47, 40, 48, 52, 20, 87, 67, 41, 91, 47, 37, 69, 59, 92, 65, 72, 87, 100, 16, 58, 66, 74, 48, 41, 35, 64, 77, 40, 21, 81, 46, 76, 93, 47, 55, 65, 100, 43, 97, 41, 52, 100, 64, 60, 54, 76, 91, 63, 48, 78, 58, 97, 31, 88, 96, 52, 94, 53, 55, 79, 78, 91, 96, 59, 26, 90, 88, 113, 93, 53, 75, 103, 82, 30, 97, 78, 59, 71, 85, 45, 28, 99, 38, 69, 70, 50, 35, 88, 21, 55, 57, 25, 37, 98, 56, 95, 42, 103, 68, 31, 102, 98, 40, 56, 79, 33, 86, 14, 42, 61, 61, 51, 75
              |47, 71, 51, 51, 45, 81, 25, 56, 21, 21, 83, 56, 46, 25, 66, 87, 62, 73, 59, 75, 90, 52, 62, 20, 33, 67, 93, 84, 27, 73, 65, 36, 36, 87, 11, 60, 58, 47, 42, 11, 23, 56, 68, 62, 59, 54, 34, 50, 62, 78, 43, 18, 60, 23, 44, 55, 23, 21, 57, 72, 67, 20, 63, 13, 21, 19, 28, 67, 56, 51, 42, 88, 37, 41, 36, 78, 42, 70, 59, 24, 44, 39, 83, 63, 55, 63, 28, 70, 38, 50, 27, 75, 31, 98, 20, 8, 53, 77, 27, 81, 53, 80, 89, 54, 46, 71, 26, 55, 61, 91, 73, 23, 49, 36, 88, 37, 21, 43, 69, 36, 60, 25, 30, 26, 17, 19, 20, 39, 76, 76, 19, 13, 14, 58, 32, 12, 11, 69, 83, 24, 8, 13, 30, 83, 89, 76, 56, 60, 38, 93, 57, 6, 77, 24, 33, 30, 67, 41, 76, 62, 66, 46, 37, 59, 22, 37, 12, 63, 50, 46, 70, 54, 30, 34, 68, 32, 82, 68, 79, 5, 68, 51, 68, 74, 85, 66, 56, 41, 52, 46, 36, 63, 17, 71, 55, 18, 38, 47, 17, 33, 14, 42, 66, 79, 22, 63, 29, 55, 18, 68, 102, 69, 40, 23, 75, 64, 3, 60, 4, 80, 57, 49, 42, 36, 54, 32, 62, 70, 26, 16, 64, 87, 21, 15, 18, 37, 46, 23, 63, 47, 10, 81, 34, 16, 25, 72, 12, 36, 22, 42, 21, 55, 79, 65, 34, 30, 37, 14, 26, 59, 49, 21, 34, 26, 28, 10, 68, 62, 46, 45, 17, 18, 70, 66, 11, 77, 51, 21, 66, 42, 50, 27, 61, 62, 32, 71, 54, 24, 21, 103, 64, 16, 46, 11, 65, 44, 52, 63, 67, 28
              |41, 57, 64, 78, 47, 78, 51, 50, 36, 12, 92, 59, 49, 52, 76, 92, 73, 57, 59, 90, 100, 69, 73, 42, 49, 67, 104, 89, 30, 79, 75, 63, 50, 98, 37, 80, 49, 35, 65, 19, 20, 75, 87, 82, 80, 74, 42, 77, 44, 88, 31, 40, 72, 5, 55, 35, 25, 31, 47, 85, 56, 28, 60, 30, 25, 41, 38, 92, 67, 76, 24, 102, 19, 67, 55, 93, 61, 70, 69, 26, 70, 66, 82, 44, 39, 48, 17, 89, 55, 39, 22, 62, 57, 107, 15, 24, 42, 88, 52, 90, 53, 74, 94, 80, 50, 67, 52, 40, 84, 99, 68, 46, 37, 58, 101, 15, 43, 26, 95, 63, 69, 2, 52, 51, 38, 46, 29, 45, 95, 95, 14, 40, 31, 80, 44, 21, 33, 62, 84, 17, 20, 36, 56, 94, 93, 70, 55, 77, 55, 101, 84, 23, 60, 51, 6, 20, 91, 26, 85, 76, 57, 50, 19, 83, 16, 25, 18, 85, 60, 59, 74, 37, 28, 30, 78, 41, 92, 70, 69, 29, 92, 33, 87, 89, 99, 80, 50, 66, 61, 53, 45, 78, 38, 67, 80, 9, 50, 60, 44, 39, 24, 69, 60, 67, 25, 82, 38, 51, 22, 71, 110, 77, 67, 49, 82, 85, 26, 86, 26, 66, 83, 75, 69, 9, 79, 7, 68, 72, 7, 35, 63, 89, 47, 13, 33, 49, 36, 38, 44, 65, 20, 67, 44, 29, 45, 73, 37, 27, 5, 19, 39, 70, 67, 51, 30, 7, 45, 41, 16, 48, 66, 33, 25, 52, 55, 17, 73, 85, 23, 59, 44, 26, 72, 75, 29, 89, 53, 41, 89, 62, 29, 40, 44, 87, 8, 67, 76, 26, 14, 112, 65, 17, 65, 32, 85, 68, 50, 62, 69, 23
              |25, 17, 65, 105, 39, 49, 77, 26, 54, 41, 79, 46, 41, 83, 67, 72, 69, 14, 41, 85, 85, 73, 67, 64, 61, 47, 91, 70, 40, 64, 68, 94, 57, 87, 66, 88, 21, 18, 83, 50, 39, 83, 91, 90, 91, 82, 47, 105, 1, 76, 20, 79, 67, 43, 55, 10, 41, 48, 19, 80, 20, 70, 35, 55, 43, 64, 48, 109, 62, 94, 20, 96, 25, 93, 69, 88, 71, 47, 64, 69, 94, 92, 54, 2, 7, 9, 33, 92, 64, 17, 65, 21, 81, 92, 57, 54, 16, 78, 76, 77, 38, 40, 74, 104, 43, 38, 79, 9, 97, 81, 38, 68, 17, 75, 92, 28, 82, 18, 115, 90, 61, 43, 71, 76, 62, 77, 71, 45, 97, 99, 57, 74, 71, 92, 52, 62, 71, 31, 59, 60, 54, 63, 80, 83, 72, 37, 37, 80, 64, 83, 110, 55, 17, 81, 39, 62, 107, 20, 73, 74, 25, 44, 25, 99, 59, 24, 59, 96, 58, 60, 57, 8, 35, 32, 69, 48, 80, 51, 32, 61, 107, 10, 91, 87, 92, 77, 26, 87, 56, 49, 49, 76, 77, 39, 99, 49, 55, 61, 75, 43, 65, 98, 30, 29, 68, 87, 47, 31, 44, 54, 93, 65, 96, 83, 66, 95, 62, 106, 58, 25, 104, 100, 98, 36, 99, 37, 57, 52, 50, 58, 41, 65, 82, 54, 53, 54, 20, 55, 1, 72, 59, 25, 51, 70, 63, 51, 73, 26, 44, 24, 59, 72, 27, 13, 72, 36, 47, 74, 59, 15, 72, 75, 28, 79, 87, 54, 56, 98, 21, 62, 75, 46, 53, 64, 69, 81, 41, 61, 101, 75, 15, 53, 2, 106, 46, 38, 89, 69, 57, 96, 45, 46, 76, 71, 90, 87, 35, 40, 51, 35
              |73, 98, 42, 18, 62, 90, 26, 78, 43, 66, 67, 64, 60, 31, 56, 79, 49, 103, 70, 50, 72, 34, 50, 35, 36, 73, 72, 76, 57, 67, 53, 26, 41, 66, 40, 25, 83, 79, 13, 57, 63, 27, 34, 27, 21, 25, 50, 19, 97, 63, 77, 52, 49, 72, 46, 95, 58, 50, 83, 51, 91, 66, 78, 47, 57, 36, 49, 16, 50, 4, 82, 59, 78, 13, 28, 52, 28, 77, 51, 71, 8, 15, 87, 99, 89, 94, 69, 37, 35, 80, 76, 101, 20, 78, 71, 52, 82, 60, 24, 67, 67, 95, 80, 9, 58, 85, 25, 88, 16, 77, 87, 31, 80, 21, 64, 82, 49, 81, 19, 18, 55, 74, 26, 25, 39, 35, 65, 53, 40, 38, 70, 42, 58, 19, 45, 62, 52, 87, 84, 74, 57, 40, 21, 63, 82, 91, 70, 36, 35, 79, 17, 54, 108, 30, 82, 80, 17, 79, 63, 44, 88, 58, 79, 11, 73, 74, 63, 21, 48, 43, 70, 89, 63, 65, 56, 49, 65, 72, 99, 47, 19, 89, 34, 48, 59, 46, 78, 10, 51, 53, 49, 43, 52, 83, 4, 69, 44, 42, 35, 54, 62, 21, 84, 101, 70, 31, 49, 74, 58, 70, 83, 60, 21, 39, 68, 23, 53, 10, 50, 104, 8, 11, 21, 84, 3, 81, 60, 73, 77, 42, 75, 84, 38, 66, 46, 45, 77, 42, 98, 31, 61, 107, 46, 62, 34, 77, 46, 71, 71, 86, 39, 38, 102, 94, 82, 77, 51, 41, 77, 87, 32, 64, 70, 25, 31, 60, 68, 17, 90, 39, 35, 54, 72, 59, 57, 57, 63, 37, 21, 24, 91, 43, 96, 11, 83, 85, 15, 71, 72, 82, 72, 60, 24, 54, 31, 10, 68, 75, 71, 64
              |41, 56, 66, 81, 48, 78, 54, 49, 39, 14, 93, 60, 50, 55, 78, 93, 75, 55, 59, 92, 101, 71, 75, 45, 52, 68, 105, 90, 32, 80, 77, 67, 52, 100, 40, 82, 49, 34, 68, 22, 22, 78, 89, 85, 83, 77, 43, 81, 42, 89, 30, 43, 73, 8, 56, 32, 28, 34, 46, 87, 55, 31, 60, 33, 27, 44, 40, 95, 68, 79, 23, 104, 18, 71, 58, 95, 64, 70, 71, 29, 74, 69, 82, 42, 37, 47, 18, 91, 57, 38, 24, 60, 60, 109, 17, 28, 41, 90, 56, 92, 54, 73, 95, 84, 52, 67, 56, 39, 87, 100, 68, 49, 36, 61, 103, 13, 47, 25, 98, 66, 71, 5, 55, 55, 41, 49, 32, 47, 97, 98, 17, 44, 34, 83, 46, 25, 37, 62, 85, 19, 23, 40, 59, 95, 94, 69, 55, 80, 57, 102, 87, 26, 58, 55, 3, 21, 95, 25, 87, 78, 56, 51, 18, 86, 19, 25, 22, 88, 62, 61, 75, 35, 29, 31, 79, 43, 94, 71, 68, 33, 95, 31, 90, 91, 101, 82, 49, 69, 63, 54, 47, 80, 42, 67, 83, 12, 52, 62, 47, 40, 27, 73, 59, 66, 28, 84, 40, 51, 24, 72, 112, 78, 70, 52, 83, 88, 30, 89, 30, 65, 87, 78, 73, 6, 83, 4, 70, 73, 9, 38, 63, 89, 51, 17, 36, 51, 35, 41, 42, 67, 23, 65, 46, 32, 48, 74, 41, 27, 8, 17, 42, 72, 66, 50, 31, 6, 47, 44, 18, 46, 68, 36, 25, 56, 58, 21, 74, 88, 20, 61, 47, 28, 73, 76, 33, 91, 54, 44, 92, 65, 26, 43, 42, 91, 6, 67, 79, 29, 17, 113, 65, 20, 68, 35, 87, 72, 51, 62, 70, 25
              |37, 57, 55, 69, 40, 74, 41, 46, 26, 4, 84, 53, 42, 43, 68, 85, 65, 58, 53, 80, 92, 59, 64, 32, 39, 62, 96, 82, 22, 71, 67, 55, 40, 90, 27, 70, 47, 33, 55, 9, 12, 65, 77, 72, 70, 64, 33, 68, 46, 80, 29, 34, 63, 5, 46, 38, 17, 22, 44, 77, 54, 26, 55, 20, 16, 31, 29, 82, 58, 66, 25, 93, 20, 58, 45, 84, 51, 64, 61, 26, 61, 56, 76, 46, 40, 48, 13, 79, 45, 37, 25, 61, 47, 99, 15, 15, 40, 80, 42, 82, 47, 70, 87, 71, 43, 63, 43, 40, 74, 91, 65, 36, 35, 48, 92, 19, 37, 27, 85, 54, 61, 8, 42, 41, 28, 37, 27, 37, 85, 85, 14, 32, 26, 70, 34, 17, 27, 59, 79, 19, 11, 27, 46, 85, 87, 66, 49, 68, 45, 93, 75, 13, 62, 42, 16, 24, 81, 25, 77, 67, 55, 42, 20, 73, 18, 23, 14, 75, 52, 50, 67, 38, 21, 25, 69, 32, 84, 64, 67, 20, 82, 34, 77, 80, 90, 71, 46, 56, 53, 45, 36, 68, 33, 62, 70, 6, 41, 51, 35, 30, 20, 61, 56, 66, 24, 72, 29, 47, 13, 65, 103, 69, 58, 41, 74, 75, 18, 76, 17, 66, 73, 66, 61, 17, 69, 14, 61, 66, 14, 25, 58, 83, 40, 10, 23, 40, 33, 29, 46, 55, 15, 67, 35, 25, 35, 67, 30, 23, 5, 24, 29, 61, 66, 51, 33, 11, 36, 33, 20, 46, 56, 30, 21, 43, 46, 9, 66, 75, 28, 49, 35, 16, 66, 67, 24, 80, 46, 31, 79, 52, 32, 31, 45, 77, 17, 63, 66, 26, 16, 104, 59, 7, 56, 26, 75, 58, 45, 56, 63, 17
              |56, 72, 76, 79, 61, 94, 55, 65, 46, 25, 105, 74, 63, 53, 89, 106, 86, 71, 74, 101, 113, 79, 85, 49, 59, 82, 117, 103, 43, 93, 88, 63, 61, 111, 41, 89, 65, 50, 72, 28, 33, 84, 96, 91, 88, 83, 54, 78, 58, 101, 46, 36, 84, 19, 67, 48, 38, 42, 62, 97, 71, 20, 75, 38, 37, 48, 50, 97, 79, 81, 39, 114, 34, 70, 64, 104, 70, 85, 82, 16, 74, 68, 97, 58, 54, 63, 32, 98, 65, 54, 9, 76, 61, 121, 10, 32, 57, 101, 57, 104, 68, 89, 108, 83, 64, 82, 56, 55, 91, 112, 84, 53, 52, 65, 113, 29, 39, 41, 99, 65, 82, 16, 59, 56, 45, 47, 21, 58, 104, 105, 11, 41, 26, 88, 55, 19, 31, 77, 99, 8, 26, 43, 60, 107, 108, 85, 70, 88, 65, 115, 86, 29, 74, 53, 18, 5, 97, 41, 99, 88, 72, 64, 34, 89, 8, 41, 18, 93, 73, 70, 89, 52, 42, 45, 91, 53, 105, 85, 84, 34, 98, 47, 97, 101, 111, 91, 65, 71, 74, 66, 57, 89, 34, 82, 85, 16, 62, 71, 46, 52, 20, 70, 75, 82, 16, 91, 50, 66, 34, 86, 124, 90, 68, 47, 95, 93, 28, 90, 32, 81, 87, 78, 70, 21, 84, 20, 82, 87, 8, 43, 78, 103, 47, 16, 43, 61, 51, 48, 58, 75, 20, 82, 56, 23, 53, 88, 37, 42, 18, 33, 48, 81, 82, 66, 15, 22, 58, 42, 4, 63, 76, 25, 40, 56, 55, 22, 87, 92, 36, 70, 46, 37, 87, 88, 26, 102, 67, 49, 96, 71, 42, 51, 58, 92, 11, 82, 83, 16, 9, 126, 79, 28, 74, 29, 94, 74, 65, 77, 84, 38
              |20, 28, 35, 90, 18, 19, 66, 13, 45, 51, 41, 13, 18, 75, 31, 35, 35, 35, 6, 50, 48, 45, 34, 54, 42, 9, 53, 33, 36, 26, 33, 84, 36, 50, 61, 60, 16, 28, 63, 54, 43, 54, 60, 60, 64, 55, 31, 90, 37, 39, 31, 80, 33, 57, 30, 44, 41, 42, 19, 45, 20, 80, 3, 51, 42, 53, 36, 84, 29, 73, 41, 60, 43, 77, 49, 53, 48, 10, 30, 81, 76, 77, 21, 39, 33, 30, 44, 60, 42, 25, 80, 28, 66, 55, 71, 55, 23, 41, 63, 39, 10, 19, 37, 85, 19, 9, 67, 30, 71, 44, 11, 55, 27, 56, 55, 50, 82, 38, 92, 76, 27, 59, 55, 63, 53, 70, 80, 26, 64, 66, 69, 71, 77, 65, 36, 70, 74, 11, 24, 75, 58, 56, 66, 46, 35, 15, 7, 49, 42, 46, 92, 57, 39, 73, 60, 79, 81, 38, 36, 41, 16, 20, 44, 74, 73, 35, 68, 69, 28, 34, 19, 35, 35, 31, 33, 33, 43, 13, 23, 59, 81, 38, 60, 52, 55, 43, 13, 69, 25, 23, 31, 43, 80, 8, 77, 61, 33, 34, 68, 30, 73, 86, 10, 26, 79, 57, 35, 9, 46, 16, 56, 28, 83, 79, 28, 67, 65, 84, 59, 31, 83, 83, 86, 59, 78, 57, 22, 15, 67, 51, 3, 29, 77, 65, 46, 33, 26, 44, 38, 45, 67, 34, 34, 78, 49, 14, 72, 34, 58, 49, 48, 42, 28, 27, 89, 54, 28, 71, 75, 22, 45, 83, 35, 67, 79, 61, 19, 71, 50, 37, 68, 45, 15, 28, 74, 45, 14, 49, 73, 52, 46, 40, 36, 83, 67, 9, 65, 81, 71, 59, 7, 51, 52, 74, 60, 66, 11, 2, 13, 38
              |76, 101, 45, 16, 65, 93, 27, 81, 46, 68, 70, 67, 63, 31, 59, 82, 52, 106, 73, 53, 75, 37, 53, 37, 39, 76, 75, 79, 59, 70, 56, 25, 44, 68, 41, 28, 86, 81, 16, 59, 65, 30, 36, 29, 23, 28, 53, 16, 100, 66, 80, 52, 53, 73, 49, 97, 60, 52, 86, 54, 94, 67, 82, 49, 59, 38, 51, 16, 53, 7, 85, 61, 80, 13, 31, 55, 31, 81, 54, 72, 8, 15, 90, 101, 92, 97, 72, 39, 38, 83, 77, 103, 21, 81, 72, 54, 85, 63, 26, 70, 70, 98, 83, 6, 61, 88, 26, 90, 18, 80, 90, 33, 82, 24, 66, 84, 49, 84, 17, 18, 58, 76, 28, 27, 40, 35, 66, 56, 42, 41, 71, 42, 59, 21, 47, 63, 52, 90, 88, 75, 58, 41, 22, 66, 85, 94, 73, 39, 38, 82, 14, 55, 111, 30, 84, 81, 17, 82, 66, 47, 91, 61, 81, 13, 74, 76, 64, 23, 51, 46, 73, 92, 65, 67, 59, 52, 68, 75, 102, 49, 19, 91, 37, 50, 61, 49, 81, 12, 55, 56, 52, 46, 52, 86, 6, 70, 47, 45, 36, 57, 63, 20, 87, 104, 70, 34, 52, 77, 60, 73, 86, 64, 20, 39, 71, 26, 54, 8, 52, 107, 5, 9, 20, 85, 4, 82, 63, 76, 79, 44, 78, 87, 38, 67, 48, 48, 80, 44, 101, 35, 62, 110, 49, 63, 36, 80, 46, 74, 73, 88, 42, 41, 105, 97, 83, 79, 54, 41, 78, 90, 35, 64, 73, 26, 31, 62, 71, 19, 92, 43, 36, 56, 75, 62, 57, 60, 66, 39, 23, 27, 94, 46, 98, 10, 84, 88, 18, 72, 73, 85, 76, 62, 27, 54, 34, 13, 71, 78, 74, 66
              |42, 65, 53, 60, 43, 78, 33, 51, 22, 13, 83, 55, 44, 34, 67, 86, 63, 66, 56, 78, 91, 55, 63, 25, 35, 64, 95, 83, 24, 72, 66, 45, 38, 89, 18, 65, 53, 40, 48, 5, 17, 60, 72, 67, 64, 59, 33, 59, 55, 79, 36, 25, 62, 14, 45, 48, 19, 20, 51, 74, 61, 20, 60, 14, 17, 24, 28, 74, 57, 58, 34, 90, 29, 49, 40, 81, 46, 68, 60, 22, 52, 47, 80, 56, 48, 57, 21, 74, 41, 44, 23, 69, 38, 99, 15, 8, 47, 79, 34, 82, 50, 76, 88, 62, 45, 68, 34, 48, 67, 92, 69, 29, 42, 41, 91, 29, 28, 35, 77, 45, 61, 17, 35, 33, 21, 27, 21, 37, 80, 81, 13, 22, 18, 64, 33, 11, 17, 64, 81, 19, 2, 19, 37, 84, 88, 72, 53, 64, 41, 94, 66, 5, 70, 33, 25, 25, 74, 34, 77, 65, 61, 44, 30, 66, 17, 31, 9, 69, 51, 48, 69, 46, 25, 29, 69, 31, 83, 66, 74, 11, 75, 43, 73, 77, 88, 68, 51, 48, 52, 45, 35, 66, 23, 67, 62, 10, 39, 48, 25, 31, 14, 51, 62, 73, 20, 67, 28, 51, 14, 67, 103, 69, 48, 31, 75, 69, 9, 68, 8, 74, 65, 57, 51, 27, 61, 24, 61, 68, 19, 19, 61, 85, 30, 9, 19, 38, 40, 25, 55, 51, 8, 75, 34, 18, 29, 70, 20, 30, 14, 33, 24, 57, 73, 59, 32, 21, 36, 23, 21, 53, 52, 23, 28, 34, 37, 2, 67, 68, 38, 47, 25, 15, 68, 67, 15, 79, 49, 25, 73, 47, 42, 28, 54, 69, 24, 68, 60, 22, 16, 104, 62, 9, 50, 17, 70, 51, 48, 60, 65, 22
              |36, 51, 19, 77, 25, 29, 58, 33, 44, 60, 21, 13, 22, 69, 9, 22, 13, 57, 18, 27, 29, 27, 12, 49, 35, 15, 34, 19, 42, 8, 11, 75, 29, 29, 59, 40, 38, 45, 50, 59, 52, 36, 39, 41, 45, 37, 31, 77, 59, 18, 47, 80, 12, 67, 21, 64, 47, 44, 40, 22, 43, 84, 26, 52, 48, 49, 37, 66, 11, 57, 58, 37, 58, 65, 38, 30, 34, 18, 10, 87, 63, 66, 26, 61, 53, 52, 55, 38, 31, 44, 87, 51, 57, 36, 78, 58, 43, 19, 55, 19, 21, 37, 25, 70, 21, 28, 59, 50, 53, 28, 30, 49, 45, 45, 33, 65, 81, 55, 74, 66, 6, 70, 46, 55, 50, 66, 84, 27, 42, 44, 76, 69, 79, 47, 33, 75, 74, 34, 24, 82, 62, 54, 57, 25, 25, 34, 22, 28, 31, 30, 78, 60, 62, 67, 73, 88, 63, 53, 15, 20, 38, 21, 59, 57, 81, 50, 73, 49, 15, 21, 9, 54, 44, 41, 10, 33, 22, 12, 44, 60, 62, 57, 38, 29, 33, 21, 33, 57, 13, 19, 29, 22, 79, 27, 61, 69, 27, 21, 64, 33, 77, 75, 33, 47, 84, 36, 36, 28, 52, 9, 39, 6, 73, 75, 11, 47, 67, 68, 61, 53, 68, 70, 75, 72, 62, 70, 3, 13, 77, 50, 20, 24, 73, 72, 46, 27, 43, 42, 60, 30, 72, 56, 31, 81, 43, 16, 71, 47, 67, 65, 45, 23, 50, 49, 96, 66, 28, 68, 83, 44, 29, 86, 48, 59, 73, 66, 7, 53, 67, 24, 64, 49, 11, 5, 76, 22, 19, 46, 53, 38, 64, 38, 57, 66, 79, 28, 47, 87, 79, 41, 16, 57, 37, 75, 39, 52, 25, 21, 11, 48
              |31, 44, 23, 81, 21, 25, 60, 27, 43, 57, 26, 9, 19, 70, 15, 24, 19, 51, 12, 34, 33, 31, 18, 50, 36, 9, 39, 21, 39, 11, 17, 77, 30, 34, 59, 45, 32, 40, 53, 57, 49, 41, 45, 46, 50, 42, 30, 81, 53, 23, 43, 80, 18, 64, 22, 58, 44, 43, 34, 28, 37, 82, 20, 51, 46, 50, 35, 71, 15, 61, 53, 43, 53, 68, 40, 36, 37, 13, 15, 85, 66, 69, 23, 55, 48, 46, 51, 44, 33, 38, 85, 45, 59, 41, 76, 56, 37, 25, 57, 24, 16, 31, 26, 74, 18, 22, 61, 44, 58, 31, 24, 50, 40, 48, 39, 61, 81, 50, 79, 69, 11, 66, 48, 57, 50, 67, 83, 25, 48, 50, 74, 69, 78, 52, 32, 73, 74, 27, 21, 80, 61, 54, 59, 30, 26, 28, 16, 34, 33, 33, 82, 59, 56, 68, 69, 85, 68, 49, 20, 26, 32, 19, 54, 62, 78, 45, 71, 55, 17, 23, 7, 49, 40, 38, 17, 32, 27, 7, 38, 59, 67, 52, 44, 35, 39, 27, 27, 60, 14, 18, 28, 28, 79, 21, 65, 67, 27, 24, 65, 31, 76, 78, 26, 41, 83, 42, 34, 22, 49, 5, 43, 12, 76, 76, 14, 52, 66, 72, 60, 47, 72, 73, 78, 68, 66, 66, 6, 8, 74, 49, 14, 23, 74, 69, 45, 27, 38, 42, 54, 34, 70, 50, 30, 80, 44, 12, 71, 43, 64, 60, 45, 28, 44, 43, 94, 63, 26, 69, 81, 38, 33, 85, 44, 61, 74, 64, 5, 58, 62, 26, 65, 47, 7, 11, 75, 28, 15, 46, 59, 42, 59, 38, 51, 71, 75, 22, 52, 85, 76, 45, 10, 55, 41, 74, 45, 56, 19, 15, 6, 45
              |67, 79, 37, 83, 55, 50, 74, 63, 67, 88, 11, 44, 52, 84, 24, 24, 26, 86, 48, 15, 9, 37, 27, 69, 55, 43, 7, 24, 69, 26, 24, 87, 52, 2, 80, 40, 68, 76, 59, 85, 80, 39, 32, 38, 44, 41, 58, 84, 89, 13, 78, 100, 28, 95, 45, 94, 74, 70, 70, 16, 72, 107, 55, 76, 75, 70, 62, 62, 33, 61, 88, 11, 88, 74, 54, 13, 48, 44, 30, 111, 70, 76, 45, 91, 84, 82, 84, 29, 50, 74, 113, 79, 70, 13, 104, 82, 74, 12, 70, 13, 52, 61, 25, 74, 50, 55, 74, 81, 51, 16, 56, 67, 76, 58, 4, 95, 100, 85, 70, 77, 30, 98, 62, 71, 72, 83, 107, 55, 29, 31, 103, 88, 101, 46, 57, 99, 96, 61, 39, 108, 87, 75, 71, 6, 27, 60, 52, 30, 50, 17, 81, 85, 91, 82, 102, 114, 58, 84, 16, 26, 67, 51, 89, 56, 107, 80, 98, 46, 39, 42, 33, 85, 72, 71, 22, 59, 9, 39, 70, 83, 56, 88, 31, 17, 8, 22, 63, 65, 38, 47, 55, 25, 100, 54, 62, 96, 51, 41, 82, 61, 101, 84, 61, 74, 109, 34, 62, 58, 78, 36, 18, 25, 83, 92, 24, 43, 91, 68, 84, 80, 69, 76, 84, 102, 64, 99, 33, 38, 105, 72, 49, 34, 90, 98, 70, 51, 74, 65, 90, 42, 96, 83, 56, 104, 63, 41, 91, 77, 95, 95, 67, 34, 77, 79, 121, 95, 55, 87, 110, 74, 40, 108, 78, 74, 87, 92, 33, 50, 97, 43, 82, 75, 37, 26, 98, 11, 50, 67, 48, 50, 95, 62, 87, 65, 107, 55, 50, 111, 105, 17, 45, 84, 47, 97, 34, 60, 55, 50, 39, 76
              |71, 97, 47, 13, 61, 93, 16, 77, 38, 58, 76, 66, 60, 17, 63, 86, 56, 101, 72, 61, 82, 41, 57, 28, 35, 77, 83, 83, 52, 73, 60, 12, 41, 76, 30, 37, 82, 75, 17, 48, 56, 37, 46, 38, 33, 34, 49, 12, 93, 72, 73, 38, 56, 62, 48, 90, 52, 45, 81, 61, 90, 53, 80, 39, 51, 29, 46, 30, 55, 17, 76, 71, 72, 1, 29, 63, 32, 81, 57, 58, 6, 1, 92, 95, 86, 92, 63, 49, 36, 77, 64, 100, 12, 88, 60, 43, 80, 69, 16, 76, 68, 97, 88, 14, 59, 87, 15, 84, 30, 86, 89, 25, 76, 22, 75, 75, 35, 76, 30, 4, 60, 65, 23, 17, 31, 22, 52, 52, 53, 52, 59, 29, 45, 31, 43, 50, 39, 88, 90, 62, 47, 31, 13, 73, 89, 93, 71, 45, 36, 88, 17, 44, 106, 17, 73, 68, 31, 74, 71, 52, 88, 58, 73, 26, 61, 69, 52, 34, 52, 46, 75, 85, 58, 61, 63, 47, 74, 76, 100, 37, 33, 84, 47, 59, 70, 55, 77, 10, 55, 54, 48, 52, 39, 85, 19, 59, 44, 46, 23, 52, 50, 9, 85, 101, 57, 43, 46, 74, 50, 74, 93, 67, 8, 25, 75, 36, 42, 21, 40, 104, 18, 8, 9, 75, 17, 72, 65, 77, 67, 35, 77, 90, 25, 55, 40, 45, 74, 38, 94, 37, 50, 106, 45, 49, 30, 81, 33, 67, 62, 79, 34, 45, 102, 92, 69, 68, 50, 28, 65, 85, 38, 51, 65, 15, 17, 50, 73, 31, 83, 43, 23, 47, 76, 65, 44, 67, 64, 32, 35, 28, 85, 40, 92, 24, 73, 87, 26, 58, 61, 93, 75, 52, 30, 41, 43, 16, 68, 77, 75, 58
              |62, 76, 33, 81, 51, 47, 70, 59, 63, 84, 9, 40, 48, 80, 19, 23, 22, 82, 44, 12, 10, 33, 22, 65, 51, 39, 10, 21, 65, 22, 20, 83, 47, 4, 75, 37, 64, 72, 56, 80, 75, 36, 30, 36, 42, 38, 54, 81, 85, 9, 73, 96, 24, 90, 41, 90, 70, 66, 66, 12, 68, 103, 51, 71, 71, 65, 58, 61, 28, 58, 84, 13, 83, 71, 50, 11, 44, 41, 26, 107, 67, 73, 42, 87, 80, 78, 79, 27, 45, 70, 109, 75, 67, 16, 100, 78, 69, 7, 67, 10, 48, 58, 23, 71, 46, 51, 71, 76, 49, 16, 53, 63, 71, 55, 7, 90, 96, 81, 69, 74, 26, 93, 58, 67, 67, 79, 103, 50, 28, 30, 98, 84, 97, 44, 53, 95, 92, 58, 36, 104, 83, 71, 67, 2, 25, 56, 48, 27, 45, 18, 79, 81, 87, 79, 97, 110, 57, 79, 12, 22, 63, 46, 84, 54, 102, 75, 94, 44, 35, 38, 29, 81, 68, 66, 17, 55, 6, 35, 67, 79, 55, 83, 29, 15, 9, 18, 59, 62, 34, 42, 50, 21, 96, 50, 60, 92, 46, 37, 78, 56, 97, 81, 57, 70, 105, 31, 57, 54, 74, 32, 21, 20, 80, 88, 21, 41, 86, 66, 80, 76, 67, 73, 81, 97, 62, 95, 29, 35, 100, 68, 45, 32, 86, 93, 66, 47, 70, 61, 86, 38, 92, 79, 51, 100, 59, 37, 87, 72, 91, 91, 63, 30, 73, 75, 117, 91, 50, 83, 106, 70, 37, 104, 73, 71, 84, 87, 29, 48, 93, 39, 78, 71, 33, 22, 94, 6, 45, 62, 47, 47, 90, 57, 83, 63, 103, 51, 47, 107, 100, 21, 41, 80, 43, 93, 32, 57, 51, 46, 35, 72
              |5, 22, 45, 88, 19, 39, 61, 10, 38, 33, 61, 27, 22, 68, 48, 57, 49, 26, 23, 66, 68, 53, 48, 48, 42, 31, 74, 55, 24, 46, 49, 78, 37, 69, 52, 68, 9, 6, 65, 39, 27, 63, 72, 70, 71, 63, 28, 88, 20, 58, 9, 68, 47, 38, 35, 23, 27, 32, 7, 61, 17, 63, 21, 40, 29, 47, 30, 90, 42, 75, 19, 77, 22, 75, 50, 69, 52, 32, 44, 64, 76, 75, 42, 22, 13, 16, 25, 72, 44, 3, 61, 25, 63, 76, 52, 42, 4, 60, 59, 59, 19, 33, 59, 86, 24, 27, 62, 10, 78, 65, 28, 51, 4, 57, 74, 28, 70, 16, 96, 73, 42, 40, 53, 59, 46, 62, 64, 26, 77, 79, 51, 61, 62, 72, 33, 54, 61, 22, 46, 56, 43, 47, 63, 65, 57, 30, 19, 60, 44, 67, 92, 43, 30, 66, 39, 60, 87, 16, 55, 54, 17, 24, 22, 80, 55, 15, 51, 76, 38, 40, 40, 14, 20, 16, 50, 29, 63, 34, 30, 48, 87, 16, 71, 67, 73, 57, 10, 69, 36, 29, 29, 57, 67, 27, 80, 43, 35, 41, 60, 24, 57, 82, 19, 29, 62, 67, 29, 13, 31, 37, 77, 47, 79, 70, 49, 75, 51, 87, 46, 30, 86, 82, 82, 37, 80, 36, 38, 36, 48, 42, 25, 51, 68, 48, 37, 34, 4, 38, 21, 52, 51, 32, 32, 62, 45, 36, 61, 14, 39, 27, 42, 52, 29, 17, 70, 34, 27, 61, 56, 10, 52, 67, 16, 62, 72, 45, 39, 78, 27, 43, 60, 32, 37, 45, 59, 62, 22, 44, 81, 55, 24, 35, 18, 87, 46, 27, 70, 64, 53, 80, 28, 35, 57, 60, 70, 68, 16, 24, 34, 22
              |41, 64, 54, 62, 42, 78, 35, 51, 24, 11, 84, 55, 44, 36, 68, 87, 64, 65, 56, 79, 92, 57, 64, 27, 37, 64, 96, 84, 24, 73, 67, 47, 39, 89, 21, 66, 52, 39, 50, 6, 16, 62, 74, 68, 66, 60, 33, 61, 53, 80, 35, 26, 62, 12, 45, 46, 19, 21, 50, 75, 60, 21, 59, 16, 17, 26, 28, 76, 58, 60, 33, 92, 27, 51, 42, 82, 48, 68, 61, 22, 54, 50, 80, 54, 47, 55, 19, 76, 42, 43, 23, 67, 41, 100, 14, 9, 46, 79, 36, 83, 50, 75, 89, 64, 45, 67, 36, 47, 69, 92, 69, 31, 41, 43, 92, 27, 30, 34, 79, 47, 62, 14, 37, 35, 23, 30, 21, 38, 82, 82, 12, 24, 19, 66, 33, 11, 19, 64, 81, 18, 4, 21, 40, 85, 88, 71, 53, 65, 42, 94, 68, 7, 69, 35, 22, 24, 76, 32, 78, 66, 60, 44, 28, 68, 16, 29, 9, 71, 52, 49, 69, 45, 25, 29, 69, 32, 84, 66, 73, 13, 77, 42, 74, 78, 89, 69, 51, 50, 53, 45, 36, 67, 25, 66, 64, 8, 40, 49, 28, 32, 14, 53, 61, 72, 20, 69, 29, 51, 13, 67, 103, 69, 51, 33, 75, 71, 11, 70, 10, 72, 67, 59, 53, 25, 64, 22, 62, 68, 17, 21, 61, 85, 32, 7, 21, 39, 39, 26, 53, 52, 8, 74, 35, 19, 31, 70, 22, 29, 12, 31, 25, 59, 72, 58, 31, 19, 37, 25, 20, 52, 54, 24, 27, 36, 39, 2, 68, 70, 36, 48, 28, 16, 68, 67, 16, 80, 49, 27, 74, 49, 40, 29, 52, 72, 22, 67, 61, 22, 14, 105, 62, 8, 52, 18, 71, 53, 48, 60, 65, 21
              |67, 86, 28, 60, 53, 64, 55, 66, 55, 79, 30, 46, 50, 65, 27, 43, 23, 92, 53, 11, 33, 22, 25, 54, 42, 51, 31, 41, 62, 37, 25, 65, 41, 25, 64, 17, 72, 75, 38, 74, 72, 18, 8, 15, 21, 21, 50, 60, 92, 27, 76, 83, 25, 86, 38, 94, 66, 60, 73, 15, 78, 93, 61, 63, 66, 54, 53, 38, 30, 38, 85, 17, 83, 52, 38, 11, 31, 54, 28, 97, 48, 54, 59, 94, 85, 86, 77, 5, 36, 75, 100, 86, 50, 37, 92, 70, 75, 23, 52, 30, 54, 72, 45, 50, 48, 64, 55, 82, 27, 39, 66, 51, 76, 40, 22, 90, 82, 83, 46, 56, 31, 89, 45, 52, 57, 65, 93, 49, 6, 8, 91, 71, 86, 23, 47, 86, 80, 69, 55, 96, 75, 60, 51, 24, 47, 70, 56, 14, 36, 40, 58, 72, 97, 63, 95, 102, 34, 81, 29, 17, 74, 48, 84, 32, 95, 76, 85, 22, 34, 33, 43, 86, 66, 66, 26, 51, 27, 48, 80, 69, 32, 87, 7, 8, 17, 15, 66, 44, 36, 43, 47, 15, 83, 63, 39, 86, 42, 32, 64, 54, 87, 62, 68, 83, 95, 11, 53, 61, 69, 45, 42, 31, 61, 73, 37, 19, 76, 44, 71, 89, 45, 52, 62, 95, 41, 92, 37, 48, 95, 59, 56, 52, 72, 86, 58, 43, 73, 53, 93, 26, 83, 92, 47, 89, 48, 51, 75, 73, 86, 91, 54, 21, 86, 84, 108, 88, 48, 70, 98, 78, 25, 93, 73, 55, 67, 80, 42, 26, 94, 33, 64, 65, 47, 31, 83, 19, 50, 52, 24, 32, 93, 51, 90, 41, 98, 64, 27, 97, 93, 41, 52, 74, 28, 81, 11, 38, 57, 56, 47, 70
              |39, 51, 68, 88, 48, 76, 60, 47, 43, 18, 94, 60, 50, 62, 78, 92, 77, 49, 58, 93, 101, 74, 76, 50, 55, 67, 106, 89, 34, 80, 78, 73, 55, 101, 46, 86, 45, 31, 73, 28, 24, 81, 93, 88, 87, 80, 45, 87, 36, 90, 28, 50, 75, 14, 58, 26, 30, 37, 43, 89, 51, 38, 57, 38, 30, 49, 42, 100, 70, 84, 18, 106, 16, 77, 62, 96, 67, 69, 72, 36, 79, 75, 79, 36, 33, 41, 19, 94, 60, 35, 31, 55, 65, 109, 25, 33, 38, 90, 61, 92, 53, 69, 94, 90, 52, 64, 61, 35, 91, 100, 65, 54, 33, 66, 104, 9, 54, 21, 104, 72, 72, 12, 60, 60, 46, 56, 39, 48, 100, 101, 24, 50, 41, 87, 49, 32, 44, 59, 83, 26, 30, 45, 65, 96, 93, 66, 54, 82, 60, 102, 94, 32, 52, 61, 4, 27, 99, 21, 87, 80, 53, 51, 15, 91, 26, 23, 29, 92, 64, 63, 74, 30, 30, 31, 80, 45, 94, 70, 64, 39, 100, 26, 93, 93, 102, 84, 47, 75, 64, 55, 49, 82, 49, 64, 88, 19, 54, 64, 54, 42, 34, 79, 56, 62, 35, 87, 43, 49, 28, 71, 112, 78, 77, 59, 82, 92, 36, 95, 36, 60, 92, 84, 79, 1, 88, 4, 70, 72, 16, 43, 62, 88, 58, 24, 40, 53, 33, 45, 36, 70, 30, 60, 49, 39, 52, 72, 48, 26, 14, 11, 46, 75, 61, 45, 37, 8, 48, 51, 25, 42, 71, 43, 25, 61, 65, 27, 73, 92, 14, 63, 54, 32, 72, 76, 40, 92, 54, 49, 96, 69, 20, 46, 36, 96, 11, 64, 83, 36, 24, 114, 64, 25, 72, 42, 90, 76, 50, 60, 69, 26
              |58, 84, 33, 26, 48, 79, 13, 64, 27, 50, 63, 52, 46, 21, 49, 72, 42, 88, 57, 49, 69, 28, 43, 19, 22, 62, 70, 69, 41, 59, 46, 24, 27, 64, 25, 27, 68, 63, 6, 41, 47, 25, 36, 29, 24, 23, 35, 26, 82, 58, 61, 40, 42, 56, 34, 79, 42, 34, 68, 48, 77, 53, 66, 31, 41, 20, 33, 31, 41, 15, 66, 60, 62, 14, 15, 51, 18, 66, 43, 58, 13, 14, 77, 83, 74, 79, 53, 39, 22, 65, 63, 86, 7, 76, 56, 36, 67, 56, 9, 62, 54, 82, 74, 23, 45, 73, 12, 72, 25, 73, 75, 15, 64, 7, 63, 66, 39, 66, 35, 14, 46, 59, 10, 10, 23, 22, 53, 39, 44, 43, 55, 29, 45, 23, 30, 48, 39, 74, 76, 60, 41, 24, 8, 60, 75, 79, 57, 33, 22, 75, 29, 38, 93, 20, 66, 66, 31, 63, 58, 39, 74, 44, 63, 23, 59, 58, 48, 28, 38, 32, 60, 73, 47, 49, 49, 34, 61, 61, 86, 32, 32, 73, 37, 47, 59, 42, 64, 6, 41, 40, 34, 39, 41, 71, 19, 53, 30, 31, 22, 39, 49, 23, 71, 87, 56, 32, 34, 60, 41, 60, 81, 53, 21, 30, 61, 29, 38, 26, 35, 90, 24, 19, 23, 68, 19, 65, 50, 63, 62, 26, 63, 76, 28, 51, 30, 31, 62, 26, 82, 23, 46, 93, 31, 49, 18, 66, 33, 55, 56, 69, 23, 32, 89, 79, 69, 61, 37, 28, 63, 72, 24, 52, 54, 12, 24, 45, 58, 26, 73, 28, 22, 38, 62, 51, 43, 54, 50, 21, 31, 14, 75, 28, 80, 27, 67, 73, 18, 58, 57, 81, 61, 44, 17, 41, 33, 8, 55, 63, 60, 48
              |34, 52, 12, 70, 21, 36, 50, 33, 36, 54, 26, 13, 18, 61, 10, 30, 10, 59, 19, 27, 34, 20, 9, 41, 27, 20, 38, 27, 36, 16, 10, 67, 22, 33, 51, 35, 38, 43, 42, 52, 46, 30, 35, 35, 39, 31, 25, 70, 59, 22, 45, 72, 8, 61, 13, 62, 41, 38, 40, 22, 45, 77, 28, 45, 42, 41, 30, 60, 4, 50, 54, 38, 54, 58, 30, 30, 26, 24, 5, 80, 56, 58, 34, 61, 52, 52, 50, 34, 23, 42, 81, 53, 49, 42, 71, 51, 42, 22, 47, 25, 20, 42, 32, 63, 16, 33, 51, 49, 47, 34, 35, 41, 43, 37, 36, 61, 73, 52, 68, 58, 4, 64, 38, 47, 43, 58, 77, 21, 40, 41, 70, 61, 71, 41, 25, 68, 67, 37, 31, 76, 55, 46, 49, 28, 33, 39, 22, 24, 23, 36, 71, 53, 64, 59, 68, 81, 57, 50, 20, 16, 40, 17, 55, 50, 74, 46, 66, 44, 7, 13, 16, 53, 38, 37, 12, 26, 27, 18, 48, 52, 56, 55, 34, 28, 35, 18, 33, 49, 5, 13, 22, 18, 72, 31, 54, 63, 19, 13, 56, 27, 70, 67, 35, 51, 77, 31, 29, 28, 45, 16, 45, 11, 65, 67, 18, 42, 60, 61, 53, 56, 61, 62, 67, 68, 55, 65, 6, 19, 71, 42, 23, 32, 65, 65, 39, 20, 41, 34, 60, 22, 65, 59, 24, 73, 35, 23, 63, 43, 62, 61, 38, 17, 53, 50, 89, 61, 21, 60, 77, 44, 22, 78, 44, 51, 64, 59, 14, 47, 64, 16, 56, 42, 18, 9, 68, 24, 17, 38, 48, 31, 62, 31, 57, 60, 73, 33, 41, 80, 72, 47, 20, 51, 30, 68, 34, 45, 23, 24, 17, 43
              |42, 59, 63, 75, 47, 79, 49, 51, 35, 11, 91, 59, 49, 49, 75, 92, 73, 59, 59, 89, 99, 67, 72, 40, 48, 68, 103, 89, 29, 79, 75, 60, 48, 98, 34, 78, 51, 36, 63, 17, 19, 74, 85, 80, 78, 72, 41, 74, 46, 87, 32, 37, 71, 4, 54, 37, 25, 30, 48, 85, 57, 25, 60, 28, 24, 39, 37, 90, 66, 73, 26, 101, 21, 65, 54, 92, 59, 70, 69, 24, 68, 63, 82, 47, 41, 50, 17, 87, 53, 41, 20, 63, 54, 107, 12, 22, 43, 87, 50, 90, 53, 75, 94, 78, 50, 68, 50, 42, 82, 98, 69, 44, 38, 56, 100, 17, 40, 28, 93, 60, 69, 2, 50, 49, 36, 43, 27, 44, 93, 94, 11, 37, 28, 78, 43, 19, 30, 63, 85, 15, 17, 34, 53, 93, 93, 71, 55, 76, 53, 101, 81, 20, 62, 48, 9, 18, 89, 27, 85, 75, 59, 50, 21, 81, 14, 27, 16, 83, 60, 58, 74, 39, 28, 31, 77, 40, 92, 70, 71, 27, 90, 35, 86, 88, 98, 79, 51, 64, 60, 52, 44, 77, 35, 68, 78, 6, 49, 59, 41, 38, 21, 67, 61, 69, 22, 80, 37, 52, 21, 72, 110, 76, 64, 46, 81, 83, 23, 84, 24, 68, 81, 72, 67, 12, 77, 9, 68, 72, 6, 33, 64, 89, 45, 11, 32, 48, 37, 37, 46, 63, 17, 69, 43, 26, 43, 74, 34, 28, 4, 22, 37, 69, 69, 53, 28, 9, 44, 38, 15, 49, 65, 30, 26, 50, 52, 14, 73, 83, 26, 57, 41, 24, 72, 74, 26, 88, 53, 39, 87, 61, 31, 39, 46, 85, 9, 68, 74, 24, 12, 112, 65, 16, 64, 29, 83, 66, 51, 62, 70, 23
              |48, 59, 28, 84, 38, 31, 68, 44, 56, 73, 9, 25, 35, 79, 11, 12, 18, 66, 29, 23, 16, 33, 17, 60, 46, 23, 22, 9, 54, 6, 14, 84, 41, 18, 70, 43, 48, 57, 57, 72, 65, 40, 39, 43, 48, 42, 44, 84, 69, 8, 60, 91, 18, 80, 33, 75, 59, 57, 51, 19, 52, 96, 35, 64, 61, 60, 49, 69, 21, 63, 70, 29, 70, 73, 47, 24, 42, 24, 18, 99, 70, 74, 26, 71, 64, 62, 67, 37, 41, 55, 100, 59, 66, 24, 91, 70, 54, 11, 65, 7, 33, 41, 14, 76, 34, 35, 69, 61, 56, 15, 36, 59, 57, 54, 23, 77, 92, 67, 77, 74, 16, 82, 56, 65, 62, 76, 96, 40, 40, 42, 89, 80, 91, 50, 45, 87, 86, 41, 21, 95, 75, 65, 66, 14, 15, 40, 33, 31, 41, 17, 84, 73, 70, 77, 86, 100, 65, 66, 5, 22, 47, 34, 71, 60, 93, 62, 85, 52, 26, 31, 13, 66, 56, 54, 11, 45, 11, 19, 50, 72, 64, 69, 38, 25, 25, 21, 44, 64, 24, 32, 41, 24, 91, 34, 65, 82, 39, 31, 75, 46, 89, 83, 41, 54, 97, 38, 48, 39, 64, 16, 26, 8, 81, 85, 4, 49, 79, 72, 73, 60, 73, 76, 83, 85, 67, 83, 16, 18, 90, 61, 29, 18, 83, 84, 58, 39, 55, 54, 70, 37, 84, 63, 43, 93, 54, 21, 82, 60, 80, 77, 57, 29, 57, 59, 108, 79, 40, 79, 96, 54, 36, 98, 61, 69, 82, 79, 13, 55, 79, 34, 75, 62, 17, 10, 88, 15, 32, 57, 55, 46, 76, 50, 67, 70, 91, 35, 52, 99, 91, 28, 25, 70, 44, 87, 40, 59, 36, 30, 19, 61
              |72, 93, 33, 54, 59, 72, 53, 73, 57, 81, 38, 53, 56, 62, 35, 52, 31, 99, 59, 20, 41, 25, 32, 53, 44, 59, 39, 50, 65, 45, 33, 61, 44, 34, 63, 14, 78, 80, 35, 75, 74, 18, 6, 12, 16, 19, 54, 54, 98, 36, 81, 81, 32, 88, 42, 99, 68, 62, 79, 24, 85, 92, 68, 64, 69, 54, 56, 30, 36, 32, 89, 24, 87, 47, 38, 20, 32, 62, 35, 97, 43, 49, 68, 99, 90, 92, 80, 6, 38, 80, 100, 93, 48, 45, 93, 71, 81, 32, 49, 39, 60, 80, 54, 43, 54, 72, 53, 88, 20, 47, 74, 50, 81, 38, 30, 93, 80, 87, 38, 51, 39, 91, 44, 50, 57, 63, 92, 53, 4, 3, 91, 69, 85, 18, 50, 85, 79, 77, 63, 97, 76, 60, 48, 33, 55, 78, 62, 17, 38, 49, 51, 73, 104, 60, 97, 103, 26, 85, 37, 24, 80, 54, 88, 25, 95, 80, 85, 15, 40, 37, 51, 91, 70, 70, 34, 54, 36, 56, 88, 69, 24, 92, 6, 17, 25, 23, 73, 40, 41, 48, 51, 22, 81, 70, 32, 87, 45, 36, 62, 58, 87, 57, 75, 91, 95, 11, 56, 68, 71, 53, 50, 40, 56, 70, 45, 13, 76, 37, 71, 96, 38, 47, 57, 98, 35, 95, 44, 56, 96, 59, 63, 60, 69, 87, 60, 46, 78, 54, 98, 28, 83, 99, 50, 88, 49, 60, 73, 77, 88, 95, 54, 25, 93, 90, 108, 91, 52, 68, 99, 84, 27, 92, 77, 53, 64, 80, 50, 19, 98, 36, 62, 67, 55, 39, 82, 28, 56, 53, 16, 31, 98, 53, 96, 33, 100, 72, 23, 97, 94, 49, 59, 76, 28, 80, 8, 34, 63, 64, 55, 73
              |55, 73, 73, 75, 59, 93, 51, 64, 43, 23, 103, 72, 61, 49, 87, 104, 83, 72, 72, 98, 111, 76, 83, 46, 56, 81, 114, 101, 41, 91, 85, 59, 58, 108, 37, 85, 64, 50, 68, 25, 31, 81, 93, 87, 85, 79, 52, 74, 59, 99, 46, 32, 81, 17, 64, 49, 36, 39, 62, 95, 71, 16, 74, 35, 35, 45, 47, 93, 77, 77, 39, 111, 35, 66, 61, 101, 67, 84, 80, 13, 70, 64, 95, 59, 54, 63, 31, 95, 62, 54, 7, 77, 57, 118, 6, 28, 57, 98, 53, 101, 66, 88, 106, 79, 62, 81, 52, 56, 87, 110, 83, 49, 52, 62, 111, 30, 35, 41, 95, 61, 80, 16, 56, 52, 42, 43, 18, 56, 101, 101, 7, 36, 22, 84, 52, 15, 27, 77, 98, 4, 23, 39, 56, 104, 106, 85, 68, 85, 62, 112, 82, 26, 75, 49, 19, 5, 93, 41, 96, 85, 72, 62, 34, 85, 4, 40, 14, 89, 70, 68, 87, 52, 40, 44, 88, 50, 103, 83, 84, 31, 94, 48, 93, 98, 108, 89, 64, 67, 72, 64, 55, 86, 30, 81, 81, 13, 59, 69, 42, 49, 16, 66, 74, 83, 12, 88, 48, 65, 31, 84, 122, 88, 64, 43, 93, 90, 24, 86, 28, 82, 83, 74, 66, 22, 80, 21, 80, 85, 8, 40, 77, 102, 43, 12, 40, 58, 51, 45, 59, 72, 16, 82, 54, 19, 50, 87, 33, 41, 17, 34, 44, 78, 82, 67, 15, 22, 55, 37, 1, 63, 73, 21, 39, 52, 51, 18, 85, 88, 37, 67, 42, 34, 85, 86, 22, 99, 66, 46, 93, 67, 43, 48, 59, 88, 13, 81, 80, 13, 5, 123, 78, 25, 71, 25, 90, 70, 64, 75, 82, 36
              |12, 19, 52, 94, 26, 42, 66, 15, 43, 34, 68, 34, 29, 72, 55, 63, 56, 21, 30, 73, 75, 60, 55, 53, 48, 37, 80, 61, 29, 53, 56, 83, 44, 76, 55, 75, 12, 6, 71, 41, 29, 70, 79, 77, 78, 69, 34, 93, 13, 65, 9, 70, 54, 37, 42, 16, 30, 37, 9, 68, 17, 64, 26, 44, 32, 52, 35, 96, 49, 82, 16, 84, 20, 81, 56, 76, 58, 38, 51, 64, 81, 80, 47, 15, 6, 11, 25, 79, 51, 4, 61, 23, 69, 82, 52, 45, 4, 66, 65, 66, 26, 36, 64, 91, 31, 31, 67, 4, 85, 72, 32, 56, 4, 63, 81, 25, 73, 13, 102, 78, 49, 39, 59, 64, 50, 66, 65, 32, 85, 86, 51, 64, 64, 79, 39, 55, 63, 25, 51, 56, 45, 52, 68, 72, 63, 32, 25, 67, 51, 73, 98, 46, 26, 70, 37, 59, 94, 13, 62, 62, 19, 31, 20, 86, 54, 15, 52, 83, 45, 47, 46, 7, 23, 20, 57, 35, 69, 40, 30, 51, 94, 10, 78, 74, 80, 64, 15, 75, 43, 36, 36, 64, 69, 31, 86, 43, 42, 48, 64, 30, 58, 87, 23, 28, 62, 74, 35, 20, 34, 43, 84, 53, 84, 73, 55, 82, 54, 94, 49, 28, 92, 88, 87, 34, 86, 34, 45, 42, 46, 47, 31, 57, 72, 48, 42, 41, 7, 43, 14, 59, 52, 29, 38, 63, 51, 42, 64, 16, 38, 23, 47, 59, 28, 13, 69, 32, 34, 64, 55, 9, 59, 68, 18, 67, 76, 46, 46, 85, 23, 49, 64, 36, 43, 52, 61, 69, 29, 49, 88, 62, 18, 41, 12, 93, 44, 31, 77, 64, 52, 86, 34, 37, 64, 62, 77, 74, 23, 30, 40, 25
              |46, 66, 60, 66, 48, 83, 40, 55, 30, 13, 91, 60, 50, 40, 74, 93, 71, 67, 61, 86, 98, 64, 70, 34, 43, 70, 102, 90, 29, 79, 73, 51, 45, 96, 26, 73, 56, 42, 56, 12, 21, 69, 81, 75, 73, 67, 40, 65, 54, 86, 38, 27, 69, 11, 52, 46, 24, 27, 53, 82, 63, 17, 64, 22, 23, 33, 35, 82, 65, 66, 34, 98, 28, 56, 48, 89, 54, 73, 67, 17, 60, 55, 85, 55, 48, 57, 22, 83, 49, 46, 16, 70, 46, 106, 7, 16, 49, 86, 42, 89, 55, 79, 95, 69, 51, 72, 41, 49, 75, 98, 73, 37, 44, 50, 98, 26, 30, 35, 85, 52, 68, 11, 44, 41, 30, 34, 18, 44, 89, 89, 6, 28, 18, 72, 40, 9, 21, 68, 87, 11, 10, 27, 45, 92, 94, 75, 58, 72, 49, 100, 72, 13, 70, 39, 19, 17, 82, 34, 84, 72, 64, 50, 29, 74, 10, 32, 6, 77, 58, 55, 75, 47, 30, 33, 76, 38, 91, 72, 77, 19, 83, 43, 81, 85, 95, 76, 55, 56, 59, 52, 42, 74, 26, 71, 70, 4, 46, 56, 32, 38, 12, 57, 65, 75, 15, 76, 35, 55, 19, 73, 110, 76, 55, 36, 82, 78, 14, 76, 16, 75, 73, 64, 57, 22, 69, 19, 68, 74, 11, 27, 66, 91, 35, 1, 27, 46, 42, 33, 55, 59, 7, 76, 41, 17, 38, 76, 25, 32, 10, 31, 32, 65, 75, 60, 25, 18, 43, 29, 13, 55, 60, 21, 30, 41, 42, 6, 74, 77, 35, 54, 32, 22, 74, 74, 16, 86, 54, 34, 81, 55, 40, 36, 54, 77, 17, 72, 68, 17, 8, 111, 67, 14, 59, 19, 78, 59, 53, 65, 71, 26
              |21, 47, 29, 63, 15, 52, 36, 28, 13, 24, 57, 27, 16, 44, 41, 59, 38, 51, 29, 54, 65, 35, 38, 23, 18, 37, 69, 56, 5, 45, 40, 54, 16, 63, 28, 48, 32, 25, 40, 22, 16, 43, 54, 50, 50, 42, 6, 63, 43, 53, 23, 47, 36, 31, 19, 42, 10, 9, 31, 50, 41, 48, 34, 18, 11, 22, 5, 67, 31, 52, 30, 67, 27, 50, 26, 58, 30, 41, 34, 50, 51, 50, 53, 45, 36, 41, 20, 55, 22, 27, 50, 50, 38, 72, 41, 22, 29, 53, 34, 55, 23, 51, 61, 61, 17, 42, 37, 34, 56, 64, 44, 26, 26, 32, 66, 33, 49, 28, 72, 48, 34, 34, 28, 34, 21, 38, 48, 10, 61, 62, 40, 38, 44, 51, 10, 38, 41, 40, 54, 45, 26, 24, 38, 59, 60, 47, 26, 43, 22, 66, 67, 25, 55, 42, 38, 51, 65, 26, 50, 41, 39, 16, 28, 57, 44, 21, 36, 56, 25, 24, 41, 35, 10, 11, 42, 6, 57, 38, 52, 26, 65, 35, 54, 54, 64, 45, 28, 45, 26, 18, 9, 43, 46, 41, 56, 33, 15, 25, 36, 4, 41, 57, 37, 52, 48, 49, 4, 26, 15, 39, 76, 42, 54, 47, 48, 55, 32, 64, 26, 54, 62, 57, 57, 38, 56, 36, 34, 41, 41, 18, 35, 57, 45, 35, 13, 14, 23, 13, 44, 32, 35, 56, 10, 45, 21, 43, 39, 18, 31, 35, 17, 36, 53, 42, 59, 32, 9, 38, 47, 35, 33, 50, 17, 37, 48, 30, 40, 57, 38, 24, 36, 13, 40, 40, 41, 54, 21, 19, 60, 33, 39, 11, 42, 64, 43, 42, 48, 50, 42, 77, 34, 21, 35, 41, 52, 44, 22, 33, 38, 13
              |29, 18, 68, 109, 42, 51, 81, 29, 58, 44, 81, 49, 45, 86, 70, 74, 72, 13, 44, 88, 88, 77, 71, 68, 64, 49, 94, 73, 44, 66, 71, 97, 60, 90, 69, 92, 24, 22, 87, 53, 42, 86, 95, 93, 94, 86, 50, 108, 3, 79, 23, 82, 70, 45, 59, 11, 45, 52, 22, 83, 22, 73, 37, 58, 46, 67, 51, 113, 65, 98, 22, 99, 28, 96, 72, 91, 75, 49, 67, 72, 97, 95, 56, 1, 11, 10, 36, 95, 67, 21, 67, 21, 84, 95, 60, 57, 20, 81, 80, 79, 41, 41, 76, 107, 47, 40, 82, 13, 101, 84, 40, 71, 21, 79, 95, 30, 85, 21, 118, 93, 64, 46, 75, 79, 65, 80, 74, 49, 101, 102, 59, 77, 74, 95, 56, 65, 74, 33, 61, 62, 57, 66, 83, 86, 74, 39, 40, 83, 67, 85, 113, 58, 15, 85, 41, 64, 111, 23, 76, 77, 27, 47, 28, 103, 62, 28, 62, 100, 61, 64, 59, 11, 38, 35, 72, 51, 83, 53, 33, 64, 110, 13, 95, 90, 95, 80, 29, 91, 59, 52, 52, 80, 80, 41, 102, 52, 58, 65, 78, 46, 68, 102, 32, 29, 70, 90, 51, 34, 47, 56, 96, 68, 99, 87, 68, 99, 65, 110, 61, 25, 108, 103, 102, 38, 103, 39, 60, 55, 52, 62, 43, 67, 85, 57, 57, 57, 23, 59, 2, 75, 62, 25, 55, 73, 67, 53, 76, 30, 46, 26, 62, 75, 27, 14, 74, 39, 51, 78, 61, 18, 76, 77, 31, 82, 90, 57, 59, 102, 23, 66, 78, 50, 56, 67, 72, 84, 45, 64, 104, 78, 17, 57, 5, 110, 48, 40, 93, 72, 60, 98, 47, 49, 80, 74, 94, 90, 38, 42, 53, 38
              |50, 67, 17, 69, 37, 45, 56, 49, 47, 68, 16, 28, 34, 66, 8, 27, 7, 74, 34, 11, 23, 19, 7, 49, 35, 32, 26, 25, 50, 18, 6, 70, 32, 19, 60, 27, 54, 59, 42, 65, 60, 24, 24, 27, 32, 26, 38, 69, 74, 12, 61, 81, 9, 75, 26, 78, 55, 50, 55, 6, 59, 88, 42, 56, 56, 50, 43, 53, 14, 47, 70, 23, 69, 58, 35, 14, 29, 35, 11, 91, 55, 60, 40, 76, 68, 68, 65, 22, 30, 58, 93, 67, 52, 31, 84, 62, 58, 10, 52, 16, 36, 53, 29, 60, 32, 45, 56, 65, 40, 26, 47, 48, 59, 40, 21, 76, 81, 68, 61, 60, 13, 78, 43, 52, 52, 64, 88, 35, 26, 28, 83, 69, 82, 34, 37, 79, 76, 50, 36, 88, 67, 55, 53, 15, 31, 51, 37, 15, 30, 29, 68, 65, 78, 64, 83, 94, 49, 66, 12, 7, 55, 33, 70, 45, 87, 62, 78, 36, 20, 22, 23, 69, 53, 52, 6, 39, 15, 28, 61, 63, 48, 71, 23, 13, 19, 5, 49, 49, 20, 28, 35, 8, 80, 43, 50, 77, 31, 21, 63, 42, 81, 69, 49, 64, 89, 22, 42, 43, 59, 25, 35, 12, 67, 73, 18, 33, 71, 57, 64, 69, 57, 61, 69, 83, 51, 80, 18, 29, 85, 52, 37, 34, 72, 78, 50, 32, 57, 45, 75, 23, 76, 72, 36, 84, 44, 32, 72, 59, 76, 77, 47, 15, 67, 66, 101, 76, 35, 68, 90, 60, 22, 89, 59, 56, 69, 72, 22, 40, 79, 23, 63, 55, 27, 12, 79, 9, 33, 47, 39, 32, 78, 42, 72, 54, 88, 45, 36, 91, 85, 36, 33, 64, 30, 77, 24, 44, 39, 37, 28, 57
              |9, 26, 35, 85, 11, 29, 59, 6, 37, 41, 49, 15, 13, 67, 36, 44, 38, 32, 11, 54, 56, 44, 36, 46, 37, 19, 61, 42, 26, 34, 37, 77, 31, 57, 52, 59, 11, 18, 59, 44, 33, 54, 61, 60, 63, 54, 24, 84, 31, 46, 21, 71, 36, 46, 27, 36, 30, 33, 12, 49, 19, 69, 10, 42, 32, 46, 28, 82, 31, 69, 31, 65, 33, 72, 44, 57, 45, 21, 33, 71, 71, 72, 32, 33, 25, 25, 33, 61, 38, 16, 69, 28, 60, 63, 60, 45, 15, 47, 57, 47, 7, 27, 46, 81, 14, 18, 60, 22, 70, 53, 20, 48, 17, 52, 61, 40, 73, 28, 89, 70, 30, 49, 49, 56, 45, 62, 70, 20, 67, 68, 59, 62, 67, 64, 29, 60, 64, 16, 35, 64, 48, 48, 60, 53, 45, 23, 6, 50, 38, 55, 88, 47, 37, 66, 50, 68, 80, 27, 43, 43, 16, 15, 33, 72, 63, 25, 57, 68, 28, 32, 27, 26, 24, 20, 38, 26, 50, 22, 28, 50, 79, 29, 61, 56, 61, 46, 6, 65, 26, 20, 24, 46, 70, 18, 74, 51, 28, 32, 60, 22, 63, 80, 13, 29, 69, 57, 27, 2, 36, 24, 65, 34, 77, 71, 36, 66, 55, 81, 49, 32, 80, 78, 80, 48, 74, 47, 26, 24, 57, 43, 13, 40, 69, 54, 37, 28, 16, 36, 32, 44, 57, 35, 27, 67, 43, 24, 63, 23, 47, 39, 41, 42, 30, 23, 78, 43, 22, 62, 64, 17, 44, 73, 24, 60, 72, 51, 27, 70, 40, 34, 60, 35, 24, 33, 64, 50, 11, 42, 72, 49, 36, 33, 29, 81, 56, 18, 62, 71, 60, 67, 16, 41, 50, 64, 60, 62, 4, 12, 21, 28
              |44, 63, 61, 70, 47, 81, 44, 53, 32, 11, 91, 60, 49, 44, 75, 92, 71, 63, 60, 87, 99, 65, 71, 36, 45, 69, 103, 89, 29, 79, 74, 55, 47, 97, 29, 75, 53, 39, 59, 14, 19, 71, 83, 77, 75, 69, 40, 69, 51, 87, 35, 31, 70, 7, 52, 42, 24, 28, 51, 83, 61, 20, 62, 25, 23, 35, 35, 85, 65, 69, 30, 99, 25, 60, 50, 90, 56, 72, 68, 20, 63, 58, 84, 51, 45, 54, 20, 84, 51, 44, 17, 67, 49, 106, 8, 18, 47, 86, 45, 89, 54, 77, 94, 73, 50, 70, 45, 46, 78, 98, 72, 40, 41, 52, 99, 22, 35, 32, 88, 55, 68, 7, 46, 44, 32, 38, 22, 44, 90, 91, 7, 32, 22, 75, 41, 13, 25, 66, 86, 12, 13, 30, 49, 92, 94, 73, 56, 74, 51, 100, 76, 16, 67, 43, 15, 17, 85, 31, 84, 73, 61, 50, 25, 77, 11, 29, 10, 80, 59, 56, 75, 43, 28, 32, 76, 39, 91, 71, 74, 22, 86, 39, 83, 86, 96, 77, 53, 59, 60, 52, 43, 75, 30, 69, 73, 1, 47, 57, 36, 37, 16, 61, 63, 72, 18, 77, 36, 54, 19, 72, 110, 76, 59, 40, 81, 80, 18, 79, 19, 72, 76, 67, 61, 18, 72, 15, 68, 73, 8, 29, 65, 90, 39, 5, 29, 46, 40, 34, 51, 61, 11, 73, 42, 21, 40, 75, 29, 30, 6, 27, 34, 67, 72, 57, 26, 14, 43, 33, 13, 52, 62, 25, 28, 45, 47, 9, 73, 79, 31, 55, 36, 22, 73, 74, 21, 87, 54, 36, 83, 57, 36, 37, 50, 81, 13, 70, 70, 20, 9, 111, 66, 14, 61, 23, 80, 62, 52, 64, 70, 24
              |29, 49, 51, 72, 33, 66, 44, 38, 25, 4, 78, 46, 35, 47, 62, 78, 60, 50, 46, 76, 86, 56, 59, 33, 37, 54, 90, 76, 17, 65, 62, 59, 37, 85, 31, 68, 39, 25, 56, 13, 6, 63, 75, 70, 69, 62, 28, 71, 39, 74, 21, 41, 58, 9, 41, 32, 12, 19, 36, 72, 46, 34, 47, 21, 12, 32, 25, 82, 53, 66, 18, 89, 13, 60, 44, 79, 49, 57, 56, 35, 63, 59, 69, 39, 32, 41, 5, 76, 42, 29, 32, 53, 49, 94, 23, 18, 32, 74, 44, 77, 40, 62, 81, 73, 37, 55, 45, 32, 74, 85, 57, 37, 27, 48, 88, 15, 44, 19, 87, 57, 56, 12, 42, 43, 29, 41, 35, 31, 82, 83, 22, 37, 34, 69, 31, 25, 34, 51, 71, 27, 16, 29, 48, 80, 80, 59, 42, 65, 42, 87, 78, 18, 54, 46, 16, 31, 82, 18, 72, 63, 47, 36, 14, 73, 26, 15, 22, 74, 47, 46, 61, 30, 14, 17, 64, 28, 79, 57, 59, 24, 82, 27, 75, 76, 85, 66, 38, 58, 48, 39, 31, 65, 40, 55, 71, 14, 37, 46, 39, 25, 28, 64, 48, 58, 32, 70, 25, 39, 10, 58, 97, 63, 61, 46, 68, 74, 25, 77, 21, 58, 75, 68, 64, 17, 71, 14, 55, 59, 20, 26, 50, 76, 45, 18, 22, 36, 25, 27, 39, 52, 22, 59, 31, 33, 35, 60, 36, 15, 10, 19, 29, 57, 58, 43, 41, 10, 31, 38, 27, 38, 54, 38, 13, 45, 51, 16, 59, 74, 23, 46, 39, 14, 59, 61, 31, 76, 40, 31, 78, 51, 26, 28, 38, 78, 21, 55, 65, 35, 23, 99, 52, 8, 54, 33, 72, 59, 37, 49, 56, 10
              |60, 86, 40, 24, 51, 84, 5, 67, 27, 47, 71, 57, 50, 12, 57, 80, 50, 90, 62, 58, 78, 36, 51, 17, 26, 68, 79, 77, 41, 66, 54, 16, 32, 72, 19, 36, 71, 64, 15, 37, 45, 34, 45, 38, 33, 32, 38, 23, 82, 67, 62, 32, 50, 52, 39, 78, 40, 33, 70, 57, 80, 45, 70, 28, 39, 18, 35, 37, 48, 22, 65, 69, 60, 12, 21, 61, 26, 72, 50, 50, 14, 11, 83, 83, 74, 80, 51, 48, 28, 66, 55, 89, 2, 85, 50, 32, 69, 65, 5, 71, 58, 87, 82, 24, 49, 77, 4, 73, 33, 81, 79, 14, 65, 15, 72, 64, 30, 65, 39, 9, 53, 54, 13, 6, 20, 14, 45, 42, 53, 52, 49, 21, 37, 32, 33, 41, 31, 78, 82, 53, 36, 20, 2, 69, 83, 83, 61, 42, 28, 83, 29, 33, 95, 11, 62, 59, 38, 62, 66, 48, 77, 48, 61, 30, 52, 57, 42, 36, 44, 38, 67, 74, 47, 50, 57, 36, 70, 67, 90, 27, 39, 72, 46, 56, 68, 51, 67, 11, 47, 45, 38, 48, 32, 76, 25, 48, 35, 38, 14, 41, 41, 18, 75, 90, 49, 41, 36, 64, 39, 66, 89, 61, 15, 21, 68, 38, 32, 30, 30, 93, 27, 19, 18, 64, 24, 61, 57, 69, 57, 24, 68, 83, 19, 45, 28, 35, 62, 26, 83, 31, 40, 96, 35, 41, 19, 72, 25, 55, 51, 67, 23, 40, 92, 81, 62, 57, 40, 20, 56, 74, 33, 44, 54, 4, 15, 40, 65, 34, 71, 35, 14, 36, 68, 58, 36, 63, 54, 21, 39, 22, 74, 29, 81, 32, 62, 77, 27, 50, 51, 90, 66, 41, 25, 33, 42, 16, 58, 67, 66, 47
              |26, 36, 60, 90, 36, 61, 62, 33, 41, 22, 82, 48, 39, 66, 68, 79, 67, 35, 45, 84, 90, 67, 66, 50, 50, 53, 95, 77, 28, 68, 68, 77, 48, 90, 49, 81, 31, 17, 71, 31, 22, 76, 86, 83, 83, 75, 38, 89, 22, 79, 14, 59, 65, 22, 50, 13, 26, 34, 28, 79, 35, 49, 43, 39, 27, 49, 37, 98, 60, 82, 4, 96, 6, 78, 58, 87, 62, 55, 62, 48, 80, 77, 65, 22, 17, 26, 15, 87, 55, 21, 44, 40, 66, 97, 36, 36, 23, 80, 62, 80, 40, 54, 81, 90, 41, 50, 63, 19, 88, 87, 50, 54, 18, 63, 94, 7, 62, 6, 103, 74, 61, 22, 58, 61, 46, 59, 50, 39, 93, 94, 36, 55, 51, 83, 43, 41, 51, 44, 69, 39, 34, 46, 65, 85, 80, 51, 41, 75, 55, 89, 95, 36, 38, 64, 18, 41, 97, 8, 76, 71, 38, 41, 5, 89, 38, 12, 38, 88, 54, 55, 62, 15, 22, 22, 70, 38, 83, 57, 49, 42, 97, 11, 86, 85, 92, 75, 33, 74, 54, 46, 41, 73, 57, 50, 87, 28, 47, 56, 57, 34, 44, 82, 41, 46, 47, 81, 37, 36, 27, 59, 99, 67, 80, 65, 70, 87, 43, 94, 40, 45, 92, 85, 82, 16, 87, 16, 59, 59, 29, 43, 48, 74, 63, 34, 38, 46, 19, 42, 22, 64, 39, 45, 42, 49, 50, 59, 54, 15, 23, 4, 45, 67, 46, 30, 51, 15, 40, 56, 38, 27, 65, 54, 15, 63, 69, 34, 61, 89, 6, 56, 57, 31, 59, 65, 48, 82, 42, 47, 92, 65, 8, 42, 22, 95, 26, 50, 80, 48, 36, 102, 50, 27, 67, 51, 84, 75, 37, 46, 56, 20
              |56, 81, 52, 41, 52, 88, 18, 65, 25, 32, 85, 62, 52, 15, 69, 91, 63, 83, 65, 75, 92, 52, 64, 20, 34, 73, 95, 87, 36, 76, 67, 25, 39, 88, 9, 56, 67, 57, 36, 22, 34, 53, 65, 59, 55, 51, 39, 40, 73, 80, 53, 12, 62, 34, 47, 67, 32, 28, 66, 73, 76, 23, 71, 19, 30, 19, 34, 60, 59, 44, 53, 87, 48, 32, 35, 78, 41, 77, 62, 28, 36, 30, 89, 74, 66, 74, 39, 68, 39, 60, 33, 84, 24, 100, 29, 18, 63, 79, 21, 84, 60, 88, 93, 45, 52, 79, 19, 65, 55, 94, 81, 21, 59, 32, 89, 49, 12, 54, 61, 27, 64, 36, 27, 20, 18, 9, 22, 44, 73, 73, 28, 2, 15, 54, 36, 19, 9, 77, 89, 31, 19, 15, 23, 84, 93, 84, 63, 59, 39, 96, 47, 17, 88, 14, 44, 37, 60, 52, 79, 63, 75, 51, 49, 53, 30, 48, 21, 58, 53, 48, 75, 64, 40, 43, 70, 37, 84, 74, 88, 12, 62, 62, 66, 74, 85, 66, 65, 34, 56, 50, 41, 63, 11, 78, 48, 29, 41, 49, 8, 40, 19, 32, 74, 88, 26, 61, 35, 63, 28, 73, 104, 72, 29, 11, 79, 59, 12, 52, 14, 89, 49, 39, 32, 47, 46, 44, 66, 76, 36, 19, 71, 91, 10, 25, 24, 41, 56, 27, 73, 47, 19, 91, 38, 19, 26, 78, 3, 47, 34, 53, 23, 55, 89, 75, 39, 41, 43, 3, 34, 69, 48, 21, 45, 19, 17, 21, 73, 57, 57, 46, 8, 27, 75, 69, 13, 78, 57, 23, 61, 40, 61, 31, 72, 54, 43, 79, 49, 28, 30, 105, 71, 27, 43, 10, 62, 38, 59, 70, 73, 38
              |51, 75, 53, 49, 49, 85, 24, 60, 24, 24, 85, 60, 49, 22, 69, 90, 64, 77, 62, 77, 93, 54, 64, 21, 35, 70, 96, 87, 31, 76, 67, 34, 39, 89, 11, 60, 62, 51, 41, 15, 27, 57, 69, 63, 59, 55, 37, 48, 66, 81, 47, 14, 63, 26, 47, 59, 27, 25, 61, 74, 71, 18, 67, 16, 25, 21, 32, 66, 59, 50, 46, 89, 41, 39, 37, 80, 44, 74, 62, 22, 43, 37, 86, 67, 59, 67, 32, 71, 40, 54, 27, 79, 30, 100, 21, 12, 57, 80, 26, 84, 57, 84, 92, 52, 50, 75, 25, 59, 61, 94, 77, 24, 53, 36, 91, 41, 16, 47, 68, 35, 63, 28, 30, 25, 18, 16, 18, 42, 77, 77, 20, 10, 11, 59, 35, 12, 7, 73, 87, 24, 12, 15, 29, 85, 92, 80, 60, 62, 40, 96, 55, 10, 81, 22, 36, 30, 66, 45, 79, 64, 70, 49, 41, 59, 23, 41, 13, 63, 53, 49, 74, 58, 34, 38, 70, 35, 85, 71, 83, 8, 68, 55, 69, 76, 87, 68, 60, 40, 55, 49, 39, 65, 13, 74, 54, 21, 41, 49, 15, 37, 13, 40, 70, 83, 21, 64, 33, 59, 22, 72, 104, 71, 37, 19, 78, 64, 4, 59, 8, 84, 56, 47, 40, 39, 53, 36, 65, 74, 28, 18, 68, 90, 18, 17, 22, 40, 50, 26, 67, 49, 11, 85, 37, 14, 27, 76, 8, 41, 26, 45, 23, 57, 83, 69, 34, 33, 40, 11, 27, 63, 50, 18, 39, 25, 25, 13, 72, 62, 50, 47, 15, 22, 73, 69, 8, 79, 55, 23, 66, 43, 54, 30, 65, 61, 35, 75, 54, 22, 22, 105, 68, 20, 47, 8, 66, 44, 55, 67, 71, 32
              |49, 57, 33, 90, 40, 27, 74, 43, 60, 76, 12, 27, 37, 84, 17, 6, 24, 64, 29, 28, 17, 39, 23, 65, 51, 22, 23, 3, 57, 8, 20, 89, 45, 21, 75, 49, 48, 58, 63, 75, 67, 46, 45, 49, 54, 48, 47, 90, 68, 13, 60, 96, 24, 82, 37, 75, 62, 60, 50, 25, 50, 100, 34, 68, 64, 65, 53, 75, 26, 69, 71, 33, 72, 79, 53, 30, 48, 22, 23, 103, 76, 80, 21, 70, 64, 61, 70, 43, 46, 55, 103, 56, 72, 24, 94, 74, 54, 16, 70, 10, 34, 37, 9, 82, 36, 32, 74, 61, 62, 13, 33, 65, 57, 59, 27, 79, 97, 68, 83, 80, 21, 85, 61, 70, 66, 81, 100, 43, 46, 48, 92, 85, 95, 56, 49, 91, 90, 39, 16, 98, 78, 70, 72, 18, 9, 36, 34, 37, 46, 15, 90, 77, 68, 82, 88, 103, 71, 67, 11, 29, 45, 37, 72, 67, 97, 64, 89, 58, 31, 36, 13, 65, 59, 56, 17, 49, 15, 18, 47, 76, 70, 69, 44, 31, 29, 28, 43, 70, 29, 35, 45, 30, 95, 31, 72, 85, 43, 36, 80, 49, 93, 89, 39, 51, 100, 44, 52, 39, 67, 16, 25, 13, 87, 91, 5, 55, 83, 79, 77, 57, 79, 82, 89, 87, 73, 85, 19, 16, 93, 66, 28, 12, 89, 87, 62, 43, 56, 58, 69, 43, 88, 60, 47, 97, 59, 18, 87, 61, 83, 78, 61, 35, 54, 57, 112, 81, 44, 84, 99, 53, 42, 102, 62, 74, 88, 82, 14, 62, 80, 39, 80, 65, 16, 15, 92, 21, 33, 61, 61, 52, 76, 54, 66, 76, 94, 32, 58, 103, 94, 28, 24, 73, 50, 91, 46, 65, 37, 29, 18, 63
              |4, 29, 35, 80, 9, 37, 54, 10, 31, 33, 53, 19, 12, 62, 40, 51, 40, 34, 17, 57, 61, 44, 39, 41, 33, 25, 66, 48, 19, 39, 40, 72, 28, 61, 46, 59, 14, 13, 56, 36, 25, 53, 62, 60, 62, 53, 19, 80, 30, 50, 15, 64, 38, 39, 26, 32, 23, 26, 13, 52, 23, 62, 18, 35, 25, 40, 22, 80, 33, 67, 25, 68, 26, 67, 41, 60, 42, 28, 35, 63, 67, 67, 39, 32, 23, 25, 25, 62, 35, 12, 62, 32, 56, 68, 52, 38, 13, 51, 52, 52, 12, 34, 53, 77, 14, 26, 55, 20, 69, 59, 28, 43, 13, 48, 66, 33, 66, 22, 87, 66, 33, 41, 45, 51, 39, 56, 63, 16, 68, 69, 51, 56, 59, 63, 25, 52, 57, 23, 42, 56, 40, 41, 55, 57, 52, 30, 13, 50, 35, 61, 84, 40, 39, 60, 42, 61, 78, 21, 47, 45, 21, 14, 27, 70, 55, 18, 50, 67, 28, 31, 33, 23, 16, 13, 42, 21, 55, 28, 34, 43, 78, 25, 62, 58, 65, 48, 10, 61, 27, 20, 21, 47, 63, 25, 71, 43, 26, 32, 54, 16, 55, 75, 20, 34, 61, 58, 21, 9, 28, 30, 71, 39, 72, 65, 42, 66, 48, 79, 42, 36, 77, 74, 75, 41, 72, 40, 30, 30, 49, 36, 21, 47, 63, 47, 31, 25, 11, 31, 31, 42, 49, 39, 23, 60, 38, 31, 56, 16, 39, 33, 35, 42, 35, 25, 70, 36, 18, 56, 57, 18, 43, 65, 17, 55, 66, 43, 32, 69, 34, 33, 54, 28, 31, 37, 56, 54, 13, 37, 72, 46, 32, 28, 28, 78, 49, 26, 61, 63, 53, 73, 23, 33, 48, 57, 61, 59, 9, 19, 28, 20
              |41, 54, 69, 86, 49, 78, 59, 49, 43, 18, 95, 62, 52, 60, 80, 94, 78, 52, 60, 94, 103, 74, 77, 50, 55, 69, 107, 91, 34, 81, 79, 72, 55, 102, 45, 86, 48, 34, 73, 27, 25, 81, 93, 88, 87, 80, 46, 85, 39, 91, 30, 48, 76, 13, 59, 29, 31, 37, 45, 90, 53, 35, 60, 37, 30, 49, 43, 99, 71, 83, 21, 107, 18, 76, 62, 97, 67, 71, 73, 33, 78, 74, 82, 39, 35, 44, 20, 94, 61, 38, 28, 58, 65, 110, 22, 32, 40, 92, 60, 93, 55, 72, 96, 89, 53, 67, 60, 37, 91, 101, 68, 54, 36, 65, 105, 11, 52, 24, 103, 71, 73, 10, 59, 59, 46, 54, 37, 49, 100, 101, 22, 49, 39, 87, 49, 30, 42, 61, 85, 23, 28, 44, 64, 97, 95, 69, 56, 83, 61, 103, 92, 31, 55, 59, 2, 24, 99, 24, 89, 81, 55, 53, 17, 91, 23, 25, 27, 92, 65, 64, 76, 33, 31, 33, 81, 46, 96, 72, 67, 38, 100, 29, 93, 94, 103, 84, 49, 74, 65, 56, 49, 83, 47, 66, 88, 17, 55, 65, 52, 43, 32, 78, 59, 65, 32, 88, 43, 52, 28, 73, 113, 80, 75, 57, 84, 92, 35, 94, 35, 63, 91, 83, 78, 2, 87, 4, 71, 74, 13, 42, 64, 90, 56, 22, 40, 54, 35, 45, 39, 71, 28, 63, 49, 37, 52, 74, 46, 28, 13, 14, 46, 75, 64, 48, 34, 8, 49, 49, 22, 45, 72, 40, 26, 60, 63, 26, 75, 92, 17, 64, 52, 32, 74, 78, 37, 93, 55, 48, 96, 69, 23, 46, 39, 95, 8, 67, 83, 33, 21, 115, 66, 24, 72, 40, 91, 76, 52, 62, 71, 27
              |33, 59, 33, 52, 28, 64, 24, 41, 3, 22, 65, 38, 28, 31, 48, 68, 44, 62, 41, 59, 72, 36, 44, 11, 16, 49, 76, 65, 13, 54, 47, 41, 18, 69, 15, 47, 45, 36, 33, 15, 17, 42, 54, 49, 47, 41, 16, 52, 54, 60, 33, 35, 42, 28, 26, 50, 12, 5, 43, 55, 53, 38, 47, 6, 11, 11, 10, 60, 38, 44, 37, 71, 33, 40, 22, 62, 28, 53, 41, 41, 41, 39, 65, 55, 46, 53, 24, 56, 22, 39, 43, 62, 28, 80, 34, 12, 41, 59, 23, 63, 36, 64, 71, 52, 29, 55, 25, 45, 51, 73, 57, 15, 37, 25, 71, 37, 36, 36, 65, 37, 42, 31, 20, 23, 9, 25, 38, 21, 62, 62, 33, 25, 33, 47, 14, 29, 28, 54, 66, 38, 17, 10, 27, 65, 71, 60, 39, 45, 22, 75, 57, 15, 67, 29, 38, 44, 59, 34, 58, 45, 52, 28, 34, 51, 37, 29, 28, 52, 32, 28, 52, 45, 18, 22, 50, 14, 64, 50, 65, 14, 60, 44, 54, 58, 68, 49, 41, 36, 34, 27, 17, 46, 34, 54, 49, 28, 20, 29, 23, 16, 31, 45, 51, 65, 39, 49, 11, 39, 12, 50, 84, 50, 43, 34, 57, 52, 21, 56, 14, 67, 53, 47, 45, 39, 48, 36, 43, 52, 37, 5, 47, 68, 32, 28, 0, 19, 35, 5, 54, 32, 26, 69, 15, 35, 12, 55, 26, 27, 28, 40, 6, 38, 66, 54, 51, 32, 19, 25, 40, 47, 33, 39, 25, 25, 35, 22, 50, 52, 44, 27, 23, 8, 52, 48, 30, 60, 33, 9, 56, 29, 46, 8, 52, 56, 41, 55, 43, 41, 35, 85, 47, 16, 32, 29, 51, 37, 35, 46, 49, 19
              |26, 11, 65, 108, 39, 44, 80, 25, 57, 47, 76, 45, 42, 87, 65, 69, 68, 8, 39, 84, 82, 73, 66, 67, 63, 44, 88, 67, 43, 61, 67, 98, 58, 85, 70, 89, 19, 21, 85, 55, 43, 83, 91, 90, 92, 83, 48, 108, 5, 74, 23, 83, 66, 48, 56, 16, 45, 51, 18, 79, 16, 76, 32, 59, 47, 67, 50, 110, 61, 96, 25, 94, 30, 96, 71, 87, 72, 44, 63, 75, 96, 95, 50, 6, 11, 5, 38, 91, 65, 18, 71, 15, 84, 89, 63, 59, 17, 76, 79, 74, 37, 35, 70, 106, 43, 34, 82, 11, 99, 78, 34, 71, 19, 77, 90, 34, 86, 24, 117, 93, 60, 49, 74, 79, 65, 81, 77, 46, 97, 98, 62, 78, 76, 93, 54, 67, 76, 27, 55, 66, 59, 66, 83, 81, 68, 33, 36, 80, 65, 80, 112, 60, 11, 85, 45, 68, 108, 25, 71, 73, 21, 44, 30, 100, 65, 29, 64, 97, 58, 61, 54, 12, 38, 35, 67, 50, 78, 48, 26, 65, 108, 16, 91, 86, 90, 76, 25, 90, 56, 49, 50, 76, 82, 35, 101, 55, 56, 62, 79, 45, 70, 102, 26, 23, 73, 87, 50, 30, 48, 51, 90, 63, 99, 88, 63, 96, 67, 108, 63, 19, 107, 103, 102, 42, 101, 43, 55, 49, 56, 62, 38, 61, 86, 60, 56, 55, 22, 58, 6, 72, 65, 19, 53, 76, 66, 48, 77, 30, 49, 30, 62, 72, 21, 8, 78, 42, 48, 79, 65, 13, 73, 80, 32, 82, 91, 59, 54, 99, 28, 63, 79, 50, 50, 62, 74, 79, 41, 64, 102, 76, 22, 56, 5, 108, 52, 34, 91, 75, 63, 93, 42, 50, 78, 76, 90, 89, 34, 37, 48, 39
              |70, 93, 33, 38, 57, 78, 39, 73, 48, 73, 50, 55, 55, 47, 42, 63, 36, 99, 62, 32, 54, 23, 37, 43, 36, 63, 53, 60, 59, 53, 39, 45, 39, 47, 51, 9, 78, 78, 21, 65, 67, 13, 14, 9, 4, 13, 49, 39, 96, 46, 77, 67, 37, 79, 40, 96, 61, 54, 79, 34, 86, 80, 71, 54, 61, 44, 50, 17, 39, 17, 84, 39, 81, 32, 29, 33, 25, 67, 39, 85, 27, 34, 75, 98, 88, 91, 74, 17, 32, 78, 89, 95, 34, 59, 82, 61, 80, 43, 36, 50, 61, 85, 64, 28, 53, 76, 39, 86, 5, 60, 78, 39, 78, 26, 44, 87, 66, 83, 26, 36, 43, 82, 33, 37, 47, 49, 79, 50, 20, 18, 81, 56, 72, 4, 44, 74, 66, 79, 71, 86, 66, 49, 34, 45, 66, 82, 63, 21, 32, 61, 36, 63, 104, 46, 89, 92, 14, 81, 47, 30, 82, 52, 82, 10, 84, 75, 74, 1, 40, 36, 57, 88, 65, 66, 41, 49, 48, 61, 91, 57, 13, 89, 15, 29, 39, 30, 73, 25, 43, 47, 47, 28, 68, 74, 17, 78, 41, 35, 49, 53, 75, 41, 77, 94, 83, 14, 50, 68, 63, 58, 64, 47, 41, 56, 54, 3, 65, 22, 60, 98, 23, 31, 41, 90, 19, 87, 48, 62, 87, 49, 66, 69, 55, 76, 51, 42, 76, 46, 97, 24, 72, 101, 45, 76, 39, 65, 60, 73, 79, 89, 45, 26, 96, 90, 96, 83, 48, 55, 88, 83, 23, 79, 72, 39, 49, 70, 55, 4, 93, 33, 49, 59, 60, 45, 70, 39, 57, 43, 5, 22, 93, 45, 94, 19, 91, 76, 9, 85, 83, 63, 63, 67, 19, 68, 12, 19, 63, 66, 60, 67
              |63, 89, 36, 22, 52, 83, 15, 69, 32, 55, 65, 56, 51, 22, 52, 75, 45, 93, 62, 50, 71, 30, 46, 23, 26, 66, 72, 72, 46, 62, 49, 22, 32, 65, 29, 27, 73, 68, 6, 46, 51, 26, 36, 29, 23, 24, 40, 22, 87, 61, 66, 42, 45, 60, 38, 84, 47, 39, 73, 50, 82, 56, 70, 35, 46, 24, 38, 27, 44, 11, 71, 60, 67, 10, 19, 52, 21, 71, 46, 61, 8, 11, 81, 88, 79, 84, 58, 39, 26, 70, 66, 91, 9, 77, 60, 41, 72, 58, 13, 65, 59, 87, 77, 18, 50, 77, 15, 77, 22, 75, 79, 19, 69, 12, 64, 71, 41, 70, 30, 12, 49, 63, 15, 14, 27, 25, 55, 44, 43, 42, 59, 32, 48, 22, 35, 51, 42, 78, 79, 63, 45, 28, 10, 62, 78, 83, 62, 34, 26, 77, 24, 42, 98, 21, 71, 69, 27, 68, 60, 41, 79, 49, 68, 20, 62, 63, 52, 26, 41, 35, 64, 78, 52, 54, 52, 39, 63, 65, 91, 36, 28, 78, 37, 48, 60, 44, 69, 1, 45, 45, 39, 41, 43, 76, 15, 57, 35, 35, 25, 44, 52, 20, 76, 92, 59, 32, 39, 65, 46, 64, 82, 56, 18, 31, 64, 28, 42, 21, 39, 95, 19, 15, 20, 72, 14, 69, 54, 67, 66, 31, 68, 79, 30, 55, 34, 36, 67, 31, 87, 26, 50, 98, 36, 52, 23, 70, 36, 60, 60, 74, 28, 34, 93, 84, 72, 66, 41, 31, 66, 77, 27, 54, 59, 15, 24, 49, 62, 24, 78, 32, 25, 43, 66, 54, 46, 56, 55, 26, 28, 17, 80, 33, 85, 22, 71, 77, 17, 61, 61, 82, 65, 49, 19, 44, 33, 6, 59, 67, 64, 53
              |33, 30, 45, 102, 32, 5, 79, 24, 59, 65, 41, 24, 32, 89, 36, 30, 42, 37, 19, 54, 45, 54, 40, 67, 55, 14, 51, 29, 50, 27, 39, 97, 49, 50, 75, 68, 25, 39, 75, 68, 57, 64, 67, 69, 73, 65, 45, 102, 44, 40, 43, 95, 40, 70, 42, 52, 55, 56, 28, 49, 24, 94, 14, 65, 57, 67, 50, 94, 38, 84, 52, 61, 55, 89, 61, 56, 59, 10, 38, 95, 88, 90, 10, 46, 41, 36, 57, 66, 54, 35, 94, 28, 79, 51, 84, 69, 33, 43, 76, 39, 24, 9, 31, 96, 32, 6, 80, 38, 81, 40, 6, 69, 38, 69, 55, 62, 96, 50, 102, 89, 34, 72, 68, 76, 67, 84, 94, 40, 70, 72, 83, 85, 91, 74, 49, 84, 88, 13, 15, 88, 72, 70, 79, 46, 29, 8, 21, 57, 54, 41, 104, 71, 40, 87, 73, 93, 91, 49, 37, 48, 20, 33, 56, 84, 87, 48, 82, 77, 39, 45, 21, 43, 48, 45, 38, 47, 43, 16, 18, 73, 90, 48, 67, 56, 57, 49, 24, 81, 36, 36, 44, 50, 94, 7, 87, 75, 46, 45, 82, 44, 87, 98, 15, 22, 93, 64, 49, 22, 60, 19, 51, 32, 96, 93, 28, 75, 79, 95, 73, 28, 94, 95, 98, 71, 89, 70, 28, 16, 81, 65, 13, 21, 91, 79, 60, 46, 38, 58, 45, 56, 81, 31, 47, 92, 63, 12, 86, 47, 71, 60, 62, 51, 25, 32, 102, 67, 42, 85, 89, 30, 56, 97, 48, 80, 93, 75, 22, 81, 60, 48, 82, 59, 17, 33, 88, 47, 27, 63, 82, 64, 55, 54, 42, 93, 80, 6, 75, 95, 85, 54, 15, 65, 63, 88, 67, 78, 25, 14, 17, 52
              |58, 81, 63, 54, 57, 93, 32, 67, 33, 28, 95, 69, 58, 28, 79, 99, 74, 82, 71, 87, 103, 64, 74, 31, 45, 79, 106, 96, 39, 85, 77, 38, 49, 99, 21, 70, 69, 56, 50, 21, 33, 67, 79, 72, 68, 65, 46, 53, 70, 91, 52, 11, 73, 27, 56, 62, 34, 33, 67, 84, 77, 9, 75, 25, 32, 30, 41, 74, 69, 58, 50, 99, 44, 46, 47, 90, 53, 83, 72, 13, 50, 44, 95, 71, 64, 72, 37, 81, 50, 60, 19, 85, 38, 110, 17, 20, 63, 89, 35, 94, 65, 92, 102, 59, 59, 83, 33, 64, 70, 104, 85, 34, 58, 46, 100, 43, 14, 51, 75, 41, 73, 28, 40, 34, 28, 23, 8, 51, 87, 86, 16, 16, 2, 68, 44, 8, 6, 80, 96, 18, 17, 25, 37, 95, 102, 88, 68, 72, 50, 106, 61, 17, 86, 28, 35, 23, 75, 49, 89, 74, 77, 58, 45, 67, 17, 47, 11, 72, 63, 58, 83, 62, 41, 45, 80, 44, 95, 80, 90, 17, 76, 59, 79, 86, 97, 78, 67, 48, 65, 58, 48, 75, 9, 82, 62, 21, 50, 59, 23, 46, 6, 45, 77, 89, 12, 74, 42, 67, 29, 81, 114, 81, 42, 22, 88, 73, 10, 66, 17, 90, 63, 53, 45, 38, 61, 36, 74, 83, 26, 28, 76, 99, 21, 16, 31, 50, 56, 35, 71, 59, 10, 91, 46, 4, 37, 85, 12, 46, 26, 47, 33, 66, 89, 75, 25, 34, 50, 17, 21, 69, 60, 9, 44, 33, 29, 15, 81, 71, 51, 57, 23, 30, 82, 79, 1, 89, 63, 33, 75, 53, 56, 39, 70, 68, 32, 83, 63, 13, 17, 115, 77, 25, 56, 4, 76, 52, 64, 75, 79, 38
              |27, 46, 16, 72, 15, 33, 50, 26, 33, 49, 32, 7, 12, 60, 17, 33, 17, 52, 13, 34, 40, 25, 16, 39, 26, 17, 44, 30, 30, 19, 17, 67, 20, 39, 49, 40, 32, 36, 44, 48, 40, 35, 41, 41, 44, 35, 20, 71, 52, 28, 38, 70, 15, 55, 12, 55, 35, 33, 33, 29, 38, 73, 23, 41, 37, 40, 26, 64, 10, 53, 48, 45, 47, 59, 31, 37, 29, 21, 12, 75, 58, 60, 32, 54, 45, 46, 44, 41, 24, 35, 76, 47, 49, 47, 67, 47, 35, 29, 47, 30, 14, 38, 36, 66, 10, 28, 51, 42, 52, 39, 30, 40, 36, 38, 43, 54, 71, 45, 72, 59, 10, 58, 38, 47, 40, 56, 73, 16, 46, 48, 65, 59, 68, 45, 22, 64, 64, 31, 31, 71, 51, 44, 49, 35, 35, 34, 16, 30, 24, 41, 73, 49, 57, 58, 62, 76, 62, 43, 26, 23, 34, 10, 48, 55, 69, 39, 62, 49, 9, 14, 17, 46, 32, 30, 19, 22, 33, 16, 43, 49, 61, 48, 41, 35, 42, 25, 26, 51, 6, 8, 18, 25, 69, 27, 57, 58, 17, 15, 55, 22, 66, 68, 29, 45, 73, 37, 25, 21, 40, 15, 50, 17, 66, 66, 22, 47, 56, 65, 50, 50, 64, 64, 68, 61, 58, 59, 8, 18, 66, 39, 19, 33, 64, 60, 35, 17, 34, 32, 53, 26, 60, 53, 20, 70, 34, 21, 61, 36, 56, 55, 35, 22, 48, 44, 85, 55, 17, 58, 72, 37, 26, 75, 37, 51, 64, 55, 15, 52, 57, 17, 55, 38, 17, 15, 65, 31, 10, 36, 53, 33, 55, 28, 50, 64, 67, 28, 45, 75, 67, 52, 16, 46, 33, 64, 40, 47, 16, 18, 15, 37
              |24, 36, 58, 88, 35, 60, 59, 32, 38, 20, 81, 47, 38, 64, 66, 78, 65, 36, 44, 82, 88, 65, 65, 48, 48, 52, 93, 75, 26, 66, 66, 75, 46, 88, 47, 79, 30, 16, 69, 29, 19, 73, 84, 81, 80, 73, 36, 87, 23, 77, 13, 57, 63, 20, 48, 15, 24, 32, 27, 78, 35, 48, 42, 36, 25, 47, 35, 96, 58, 80, 3, 94, 4, 76, 56, 86, 60, 54, 61, 47, 78, 75, 64, 24, 18, 27, 13, 85, 53, 20, 43, 41, 64, 96, 35, 34, 22, 78, 59, 79, 39, 54, 80, 88, 40, 49, 61, 20, 86, 86, 50, 51, 18, 61, 92, 7, 60, 6, 101, 72, 59, 21, 56, 59, 44, 57, 49, 37, 91, 92, 34, 53, 49, 81, 40, 40, 50, 43, 68, 38, 32, 44, 63, 84, 79, 51, 40, 73, 53, 88, 93, 34, 39, 62, 18, 40, 95, 6, 74, 70, 38, 39, 3, 86, 37, 10, 37, 86, 53, 53, 61, 16, 20, 20, 68, 36, 82, 55, 49, 40, 95, 12, 84, 83, 91, 73, 32, 72, 52, 44, 39, 71, 55, 49, 85, 27, 45, 54, 55, 32, 43, 80, 41, 47, 45, 79, 35, 35, 25, 57, 98, 66, 77, 63, 69, 85, 41, 92, 38, 46, 89, 83, 80, 16, 85, 16, 57, 57, 28, 40, 47, 73, 61, 32, 36, 44, 18, 40, 24, 62, 37, 46, 40, 48, 48, 58, 52, 13, 21, 5, 42, 65, 46, 31, 50, 14, 38, 54, 37, 27, 63, 52, 13, 61, 67, 32, 60, 87, 8, 54, 55, 28, 58, 64, 47, 80, 40, 45, 90, 63, 10, 40, 23, 92, 25, 49, 78, 47, 35, 100, 49, 25, 65, 49, 82, 73, 36, 45, 55, 18
              |42, 44, 41, 99, 37, 11, 79, 34, 62, 72, 28, 25, 35, 89, 28, 16, 34, 51, 23, 43, 32, 49, 33, 68, 55, 15, 38, 16, 55, 17, 31, 96, 49, 37, 77, 61, 37, 50, 72, 74, 64, 57, 59, 61, 66, 59, 48, 99, 57, 28, 53, 98, 34, 78, 41, 65, 60, 60, 40, 39, 38, 99, 24, 69, 62, 69, 53, 87, 33, 79, 63, 49, 65, 87, 59, 45, 56, 12, 32, 102, 85, 88, 6, 59, 54, 49, 65, 57, 52, 46, 101, 42, 78, 37, 91, 74, 45, 31, 76, 26, 29, 22, 17, 92, 35, 19, 80, 51, 74, 26, 19, 69, 48, 66, 43, 72, 99, 60, 95, 87, 28, 81, 67, 76, 69, 85, 100, 43, 60, 62, 90, 87, 96, 68, 51, 90, 92, 26, 2, 96, 77, 72, 78, 34, 15, 22, 27, 49, 52, 27, 100, 76, 54, 87, 82, 100, 84, 59, 26, 40, 33, 36, 66, 78, 94, 57, 88, 70, 36, 42, 13, 56, 55, 52, 29, 50, 30, 13, 32, 77, 82, 59, 58, 46, 45, 40, 34, 78, 33, 36, 46, 42, 97, 18, 82, 82, 46, 42, 84, 48, 93, 97, 27, 36, 99, 57, 52, 31, 66, 14, 37, 23, 95, 95, 17, 68, 84, 90, 77, 42, 90, 91, 97, 81, 84, 79, 23, 11, 89, 68, 19, 8, 93, 85, 63, 46, 48, 60, 58, 52, 87, 45, 49, 97, 63, 9, 89, 55, 79, 71, 64, 45, 39, 45, 109, 76, 44, 87, 96, 42, 51, 102, 57, 80, 93, 81, 15, 74, 71, 45, 84, 64, 12, 25, 92, 36, 30, 65, 74, 60, 67, 56, 55, 88, 89, 19, 69, 102, 92, 40, 17, 71, 59, 92, 59, 74, 32, 21, 14, 59
              |24, 50, 26, 59, 17, 53, 32, 31, 10, 26, 55, 27, 17, 41, 39, 58, 36, 55, 30, 51, 63, 31, 35, 19, 14, 38, 67, 55, 9, 44, 38, 50, 12, 61, 26, 44, 35, 29, 36, 23, 19, 39, 50, 46, 46, 38, 4, 59, 48, 51, 28, 46, 34, 33, 17, 46, 13, 9, 35, 47, 44, 48, 36, 17, 13, 19, 1, 62, 29, 47, 34, 64, 31, 46, 22, 55, 25, 42, 32, 51, 47, 46, 54, 49, 40, 45, 24, 51, 18, 31, 52, 53, 34, 71, 42, 22, 33, 51, 31, 54, 25, 53, 60, 57, 17, 44, 34, 38, 52, 63, 46, 22, 30, 28, 63, 37, 47, 33, 68, 44, 33, 36, 24, 30, 18, 36, 48, 9, 57, 58, 41, 36, 43, 46, 6, 39, 40, 43, 54, 47, 26, 21, 34, 56, 60, 49, 28, 40, 18, 65, 63, 25, 60, 39, 41, 52, 61, 31, 49, 38, 42, 16, 32, 52, 45, 25, 37, 51, 23, 21, 41, 40, 14, 16, 40, 3, 55, 39, 55, 25, 61, 39, 50, 51, 61, 42, 31, 40, 24, 17, 7, 40, 45, 43, 52, 34, 12, 22, 33, 5, 41, 53, 40, 55, 49, 45, 0, 29, 17, 39, 74, 40, 51, 44, 47, 51, 32, 59, 25, 58, 57, 53, 53, 42, 52, 39, 33, 41, 43, 16, 36, 57, 42, 36, 11, 11, 28, 9, 49, 28, 36, 60, 6, 45, 16, 43, 37, 22, 34, 39, 14, 32, 56, 46, 60, 35, 8, 36, 48, 39, 29, 50, 22, 34, 45, 30, 39, 52, 43, 21, 33, 13, 40, 38, 40, 51, 22, 15, 56, 28, 43, 6, 46, 59, 46, 44, 43, 51, 43, 76, 36, 22, 31, 40, 48, 40, 24, 35, 38, 17
              |34, 35, 42, 100, 32, 5, 77, 26, 58, 66, 35, 22, 31, 87, 32, 25, 38, 41, 18, 49, 40, 51, 36, 66, 53, 11, 46, 24, 50, 22, 35, 95, 47, 45, 74, 64, 29, 42, 72, 69, 58, 60, 63, 65, 69, 61, 44, 99, 48, 35, 45, 94, 36, 72, 40, 56, 55, 56, 31, 44, 28, 94, 16, 65, 57, 66, 49, 90, 34, 81, 55, 56, 57, 87, 59, 51, 56, 7, 34, 96, 85, 88, 6, 50, 45, 40, 58, 62, 51, 38, 95, 33, 77, 46, 85, 69, 36, 38, 75, 34, 24, 14, 26, 93, 31, 10, 79, 42, 77, 35, 10, 67, 40, 66, 50, 64, 96, 52, 98, 87, 30, 74, 66, 75, 66, 83, 95, 39, 65, 67, 84, 84, 91, 71, 48, 85, 88, 17, 11, 89, 72, 69, 77, 41, 24, 13, 21, 53, 51, 36, 101, 72, 45, 85, 75, 94, 87, 52, 32, 44, 24, 32, 58, 81, 88, 50, 82, 74, 36, 42, 16, 47, 49, 46, 33, 46, 38, 13, 23, 73, 86, 51, 62, 52, 52, 45, 26, 79, 33, 34, 43, 46, 93, 9, 84, 76, 44, 42, 81, 44, 88, 96, 18, 27, 94, 60, 48, 24, 60, 15, 46, 28, 94, 92, 23, 71, 79, 92, 73, 33, 91, 92, 96, 73, 85, 72, 25, 11, 82, 64, 13, 17, 90, 80, 60, 44, 40, 57, 49, 53, 82, 36, 46, 92, 61, 8, 86, 48, 73, 63, 61, 47, 30, 36, 103, 69, 41, 84, 90, 34, 52, 97, 50, 79, 91, 76, 18, 77, 63, 45, 81, 59, 13, 28, 88, 42, 26, 62, 78, 61, 59, 53, 46, 90, 82, 10, 71, 96, 86, 49, 13, 66, 60, 88, 63, 75, 26, 14, 13, 53
              |60, 86, 50, 32, 54, 90, 11, 68, 27, 40, 82, 63, 54, 5, 67, 90, 61, 89, 67, 71, 89, 48, 61, 19, 33, 74, 91, 86, 40, 75, 65, 17, 38, 85, 13, 50, 72, 62, 29, 30, 40, 48, 59, 52, 48, 46, 41, 31, 79, 78, 59, 17, 60, 43, 47, 74, 38, 32, 71, 69, 81, 31, 74, 24, 36, 19, 36, 51, 58, 36, 60, 82, 55, 23, 31, 74, 37, 78, 60, 36, 27, 21, 90, 80, 72, 79, 46, 62, 37, 65, 42, 89, 17, 97, 38, 25, 68, 76, 15, 82, 62, 91, 92, 36, 54, 81, 11, 71, 48, 92, 84, 19, 64, 27, 85, 57, 16, 61, 52, 18, 62, 45, 23, 14, 19, 2, 30, 46, 67, 67, 37, 7, 23, 47, 37, 28, 17, 81, 90, 40, 27, 17, 16, 81, 92, 87, 65, 55, 37, 94, 38, 25, 94, 5, 53, 46, 52, 59, 77, 60, 79, 53, 56, 45, 39, 54, 30, 51, 52, 47, 75, 71, 45, 48, 68, 39, 81, 74, 92, 18, 53, 69, 60, 69, 81, 63, 68, 26, 55, 51, 42, 60, 17, 80, 39, 38, 41, 47, 4, 43, 28, 23, 78, 92, 35, 55, 37, 66, 34, 74, 101, 70, 20, 7, 78, 53, 21, 43, 21, 94, 40, 30, 23, 55, 38, 52, 65, 76, 46, 22, 73, 91, 5, 34, 27, 41, 61, 28, 80, 43, 28, 96, 39, 27, 24, 79, 11, 52, 42, 61, 24, 51, 93, 81, 48, 49, 44, 6, 43, 74, 44, 29, 51, 11, 8, 30, 73, 49, 65, 44, 4, 32, 75, 68, 22, 75, 59, 23, 54, 35, 69, 32, 78, 46, 52, 81, 42, 36, 39, 102, 72, 34, 38, 19, 57, 31, 62, 72, 73, 44
              |63, 84, 71, 61, 64, 99, 41, 72, 41, 31, 103, 76, 65, 36, 87, 107, 82, 85, 77, 96, 111, 72, 82, 40, 53, 86, 114, 104, 45, 93, 85, 45, 57, 108, 30, 79, 73, 60, 59, 27, 38, 75, 87, 81, 77, 74, 53, 60, 72, 99, 56, 16, 81, 28, 64, 63, 40, 40, 71, 93, 81, 1, 81, 33, 38, 39, 48, 82, 77, 67, 52, 108, 46, 54, 56, 99, 62, 89, 80, 5, 59, 52, 101, 73, 66, 75, 40, 90, 59, 64, 12, 88, 47, 118, 14, 27, 67, 98, 44, 102, 72, 97, 109, 67, 66, 89, 42, 67, 78, 112, 90, 43, 62, 55, 109, 44, 20, 53, 83, 49, 81, 28, 49, 43, 37, 32, 1, 58, 96, 95, 15, 25, 8, 77, 52, 10, 15, 85, 103, 13, 23, 33, 46, 103, 109, 93, 74, 81, 59, 114, 68, 24, 88, 36, 34, 17, 83, 52, 97, 83, 81, 65, 47, 76, 14, 50, 13, 81, 71, 67, 90, 64, 46, 50, 88, 52, 103, 87, 94, 25, 85, 61, 88, 94, 106, 86, 72, 57, 72, 66, 56, 84, 15, 88, 71, 22, 58, 67, 31, 52, 8, 52, 82, 93, 5, 83, 49, 72, 35, 88, 122, 89, 50, 29, 95, 82, 18, 75, 24, 93, 71, 61, 52, 38, 69, 35, 82, 89, 23, 36, 83, 106, 29, 17, 39, 58, 60, 43, 72, 68, 14, 94, 54, 4, 45, 91, 21, 50, 27, 48, 41, 75, 93, 78, 16, 35, 57, 26, 16, 73, 69, 4, 48, 42, 37, 20, 88, 80, 52, 65, 31, 36, 89, 87, 10, 98, 70, 42, 84, 62, 57, 47, 72, 77, 29, 89, 72, 5, 15, 123, 83, 30, 65, 13, 85, 61, 70, 81, 86, 43
              |40, 45, 37, 95, 34, 15, 75, 34, 58, 70, 24, 22, 33, 85, 23, 14, 30, 52, 21, 39, 29, 44, 29, 65, 51, 13, 35, 13, 53, 13, 26, 92, 45, 34, 74, 57, 37, 49, 67, 71, 62, 53, 54, 57, 62, 54, 45, 95, 58, 24, 52, 95, 29, 76, 37, 65, 58, 57, 40, 35, 39, 97, 23, 66, 60, 65, 50, 83, 29, 75, 62, 45, 64, 83, 55, 41, 52, 11, 27, 99, 81, 84, 10, 59, 54, 50, 63, 52, 48, 46, 98, 44, 74, 35, 89, 71, 44, 27, 72, 22, 27, 25, 16, 88, 32, 20, 76, 51, 70, 24, 21, 65, 48, 62, 39, 71, 96, 59, 91, 83, 24, 79, 63, 72, 66, 82, 97, 40, 56, 58, 88, 84, 92, 64, 47, 87, 89, 27, 6, 93, 75, 69, 74, 30, 14, 24, 25, 45, 48, 25, 96, 73, 56, 83, 81, 98, 79, 58, 22, 36, 34, 33, 65, 74, 92, 56, 85, 66, 32, 38, 9, 55, 53, 50, 24, 46, 27, 10, 35, 74, 78, 59, 53, 42, 41, 36, 34, 74, 29, 33, 43, 38, 94, 19, 78, 80, 42, 38, 80, 45, 90, 93, 28, 38, 97, 52, 49, 30, 63, 10, 36, 19, 90, 91, 13, 63, 81, 85, 74, 44, 85, 87, 93, 79, 79, 78, 19, 8, 87, 64, 18, 9, 89, 83, 60, 43, 47, 57, 59, 47, 84, 47, 45, 94, 59, 7, 86, 54, 77, 70, 60, 40, 41, 46, 107, 74, 41, 84, 94, 43, 47, 99, 55, 76, 89, 78, 11, 69, 71, 41, 80, 61, 9, 20, 89, 32, 28, 61, 70, 56, 67, 53, 56, 83, 87, 20, 65, 99, 90, 38, 16, 69, 55, 89, 55, 70, 30, 19, 11, 57
              |38, 64, 23, 45, 29, 62, 20, 44, 10, 35, 55, 35, 28, 30, 39, 61, 34, 69, 40, 47, 63, 24, 34, 10, 4, 46, 65, 58, 22, 47, 37, 38, 10, 59, 20, 33, 49, 43, 22, 28, 29, 29, 41, 36, 34, 27, 16, 45, 62, 51, 42, 41, 33, 41, 18, 60, 24, 16, 48, 44, 58, 48, 47, 17, 23, 10, 14, 48, 30, 33, 48, 59, 44, 32, 9, 50, 15, 50, 32, 52, 33, 32, 62, 64, 54, 59, 36, 43, 10, 45, 55, 67, 21, 70, 47, 24, 47, 49, 18, 54, 36, 65, 64, 42, 27, 55, 21, 52, 39, 64, 57, 10, 45, 14, 60, 49, 42, 47, 54, 31, 34, 44, 10, 17, 12, 26, 48, 20, 49, 49, 45, 30, 42, 34, 10, 40, 36, 55, 61, 51, 30, 16, 21, 55, 64, 61, 39, 32, 10, 67, 49, 27, 74, 28, 51, 57, 47, 44, 49, 34, 55, 26, 45, 39, 49, 39, 39, 39, 24, 19, 47, 54, 28, 30, 40, 14, 55, 46, 67, 23, 48, 53, 41, 46, 57, 37, 44, 26, 27, 23, 15, 35, 41, 54, 38, 41, 13, 19, 25, 19, 42, 40, 52, 68, 50, 36, 14, 41, 25, 45, 74, 42, 38, 36, 50, 39, 31, 45, 25, 71, 43, 39, 40, 52, 38, 49, 37, 48, 50, 13, 46, 63, 34, 40, 13, 13, 42, 8, 63, 19, 38, 73, 12, 45, 4, 51, 32, 36, 41, 52, 8, 26, 69, 60, 63, 45, 17, 29, 53, 52, 21, 49, 35, 21, 34, 34, 45, 39, 55, 17, 25, 21, 47, 40, 39, 49, 32, 7, 43, 16, 56, 8, 60, 45, 54, 55, 30, 52, 47, 75, 44, 29, 19, 38, 38, 26, 36, 45, 45, 29
              |20, 25, 38, 93, 20, 17, 68, 12, 47, 52, 43, 16, 21, 77, 34, 36, 38, 32, 9, 52, 49, 47, 36, 56, 45, 11, 55, 34, 37, 28, 36, 86, 39, 52, 63, 62, 15, 28, 66, 56, 45, 57, 63, 63, 66, 58, 33, 92, 36, 41, 31, 82, 36, 58, 33, 43, 42, 44, 18, 47, 18, 81, 1, 53, 44, 56, 38, 87, 32, 75, 41, 62, 43, 80, 51, 55, 50, 11, 33, 83, 79, 80, 21, 38, 32, 28, 44, 62, 44, 24, 81, 26, 69, 56, 72, 57, 22, 43, 66, 41, 12, 16, 38, 87, 21, 7, 69, 29, 74, 45, 9, 58, 26, 59, 57, 50, 84, 38, 94, 79, 30, 60, 58, 66, 55, 73, 82, 29, 67, 69, 70, 73, 78, 68, 38, 72, 75, 9, 24, 76, 59, 58, 69, 48, 36, 13, 9, 52, 44, 47, 95, 59, 37, 75, 61, 80, 84, 37, 38, 44, 13, 22, 44, 77, 74, 36, 69, 72, 31, 36, 21, 34, 36, 32, 36, 35, 45, 15, 21, 61, 83, 37, 62, 54, 58, 46, 12, 72, 28, 26, 33, 46, 81, 6, 79, 62, 36, 37, 70, 32, 74, 88, 7, 23, 80, 59, 37, 10, 47, 18, 57, 31, 86, 81, 30, 70, 67, 87, 60, 28, 86, 85, 88, 59, 80, 58, 24, 16, 68, 53, 5, 30, 79, 66, 48, 35, 26, 46, 37, 48, 68, 31, 36, 79, 52, 15, 74, 34, 59, 49, 50, 45, 25, 25, 89, 55, 31, 73, 76, 21, 48, 84, 36, 69, 81, 62, 21, 74, 49, 39, 70, 47, 17, 30, 75, 47, 16, 52, 76, 55, 45, 43, 34, 86, 67, 7, 67, 83, 72, 60, 9, 52, 55, 76, 62, 69, 13, 4, 15, 40
              |78, 104, 52, 6, 68, 99, 23, 84, 45, 65, 79, 72, 66, 23, 67, 90, 60, 108, 77, 63, 85, 45, 61, 35, 42, 82, 85, 87, 59, 78, 64, 15, 47, 78, 37, 38, 88, 82, 21, 55, 63, 39, 47, 40, 34, 37, 55, 6, 100, 75, 80, 43, 60, 69, 54, 97, 59, 52, 88, 64, 97, 59, 86, 46, 58, 36, 52, 26, 60, 17, 84, 72, 79, 7, 35, 65, 37, 86, 62, 64, 8, 8, 97, 102, 93, 98, 70, 50, 42, 84, 70, 106, 19, 91, 66, 50, 87, 72, 23, 79, 74, 103, 92, 9, 65, 93, 22, 91, 29, 89, 95, 32, 83, 27, 77, 82, 40, 83, 25, 11, 65, 72, 29, 24, 39, 29, 58, 59, 53, 52, 65, 35, 51, 32, 50, 57, 45, 94, 95, 69, 54, 39, 20, 76, 93, 99, 77, 48, 42, 91, 10, 51, 113, 23, 80, 74, 28, 81, 75, 56, 94, 64, 80, 24, 68, 76, 58, 34, 57, 51, 80, 92, 65, 68, 67, 54, 77, 81, 106, 44, 30, 91, 48, 61, 72, 58, 84, 15, 60, 60, 54, 55, 44, 91, 17, 65, 51, 51, 30, 58, 56, 9, 91, 107, 63, 44, 53, 80, 58, 79, 96, 71, 9, 30, 79, 37, 49, 17, 48, 110, 14, 3, 9, 82, 15, 79, 70, 83, 73, 42, 83, 95, 30, 62, 47, 51, 81, 45, 101, 41, 56, 113, 51, 55, 37, 86, 39, 74, 69, 86, 41, 49, 109, 99, 75, 76, 57, 34, 72, 92, 42, 56, 72, 22, 22, 57, 78, 31, 90, 48, 30, 54, 81, 69, 50, 70, 70, 39, 34, 33, 92, 47, 99, 20, 79, 93, 28, 64, 67, 95, 81, 59, 34, 47, 44, 19, 75, 83, 80, 65
              |56, 79, 18, 46, 43, 64, 37, 58, 38, 63, 39, 40, 40, 47, 28, 50, 22, 85, 47, 24, 45, 9, 23, 35, 25, 48, 45, 48, 47, 39, 25, 48, 26, 39, 45, 7, 64, 64, 21, 56, 56, 1, 13, 8, 11, 3, 36, 46, 82, 35, 64, 64, 22, 69, 26, 82, 50, 43, 64, 23, 71, 75, 56, 46, 50, 36, 38, 32, 24, 24, 72, 34, 69, 36, 20, 26, 14, 52, 25, 79, 32, 38, 61, 84, 74, 77, 62, 15, 20, 64, 82, 80, 32, 51, 74, 52, 65, 32, 33, 39, 46, 70, 52, 37, 38, 61, 37, 72, 19, 49, 63, 32, 65, 21, 38, 75, 64, 70, 39, 39, 28, 72, 26, 34, 39, 47, 74, 36, 21, 21, 73, 52, 67, 12, 32, 68, 61, 64, 57, 78, 58, 42, 33, 36, 54, 67, 49, 8, 20, 51, 45, 55, 90, 45, 79, 85, 28, 68, 35, 16, 67, 38, 70, 22, 77, 63, 67, 16, 25, 21, 43, 75, 52, 53, 28, 36, 37, 46, 76, 51, 28, 75, 13, 21, 33, 18, 58, 27, 28, 33, 34, 15, 64, 59, 27, 69, 27, 20, 46, 40, 69, 46, 62, 79, 77, 8, 38, 54, 53, 44, 56, 33, 45, 55, 41, 14, 58, 34, 53, 83, 34, 38, 46, 79, 28, 76, 34, 47, 78, 41, 52, 56, 53, 68, 41, 28, 62, 36, 83, 10, 65, 86, 32, 71, 30, 51, 56, 60, 69, 77, 36, 11, 81, 76, 90, 72, 35, 52, 81, 69, 9, 74, 59, 37, 49, 62, 41, 18, 80, 19, 46, 49, 46, 31, 65, 29, 42, 35, 20, 14, 80, 34, 80, 32, 82, 61, 13, 79, 75, 56, 48, 57, 10, 63, 10, 22, 48, 52, 45, 55
              |33, 7, 68, 117, 44, 36, 90, 28, 67, 60, 73, 46, 46, 97, 65, 63, 68, 7, 39, 83, 78, 77, 67, 77, 70, 41, 84, 62, 53, 58, 67, 107, 64, 82, 81, 92, 23, 31, 92, 67, 55, 87, 94, 93, 96, 87, 56, 116, 20, 71, 35, 96, 67, 62, 60, 31, 56, 61, 23, 78, 14, 89, 30, 69, 58, 76, 59, 116, 63, 103, 39, 92, 44, 104, 77, 86, 78, 40, 64, 89, 104, 103, 42, 21, 24, 15, 51, 93, 71, 28, 85, 5, 92, 84, 77, 70, 25, 74, 88, 71, 39, 25, 64, 113, 48, 29, 91, 23, 103, 73, 28, 80, 29, 84, 87, 48, 98, 37, 122, 102, 60, 63, 81, 88, 75, 91, 90, 52, 98, 100, 76, 90, 89, 97, 61, 81, 89, 23, 48, 80, 71, 76, 92, 78, 62, 25, 37, 82, 71, 74, 120, 72, 8, 95, 60, 82, 113, 38, 68, 75, 18, 48, 44, 106, 79, 41, 78, 101, 60, 65, 51, 26, 48, 45, 67, 57, 75, 45, 16, 76, 113, 30, 93, 85, 88, 77, 28, 97, 58, 53, 57, 77, 95, 30, 107, 68, 62, 66, 89, 52, 84, 111, 24, 11, 87, 90, 58, 32, 60, 49, 84, 62, 108, 99, 60, 99, 79, 115, 74, 6, 113, 110, 111, 57, 107, 57, 55, 46, 70, 72, 36, 54, 97, 73, 66, 61, 32, 67, 20, 77, 78, 4, 60, 89, 74, 43, 89, 41, 63, 45, 71, 75, 9, 13, 92, 56, 55, 90, 79, 19, 77, 94, 43, 91, 101, 72, 52, 103, 42, 67, 89, 61, 47, 61, 86, 78, 44, 73, 105, 82, 36, 64, 19, 114, 67, 29, 96, 89, 77, 87, 40, 63, 83, 88, 93, 96, 38, 35, 46, 50
              |66, 90, 66, 47, 64, 100, 30, 75, 38, 37, 98, 74, 64, 23, 82, 104, 77, 91, 77, 89, 106, 65, 77, 33, 48, 85, 108, 101, 46, 90, 80, 31, 52, 102, 23, 69, 77, 65, 49, 29, 42, 67, 78, 71, 67, 65, 52, 46, 80, 94, 61, 2, 76, 37, 60, 72, 42, 39, 75, 86, 86, 15, 82, 31, 40, 33, 46, 70, 72, 55, 59, 100, 54, 41, 48, 91, 55, 89, 75, 20, 46, 39, 101, 80, 73, 81, 46, 81, 53, 69, 27, 93, 36, 113, 26, 27, 72, 92, 34, 97, 72, 99, 106, 54, 65, 90, 31, 73, 67, 107, 92, 35, 67, 45, 102, 53, 5, 60, 70, 36, 77, 38, 40, 33, 31, 20, 14, 57, 86, 86, 26, 14, 8, 66, 49, 18, 8, 88, 102, 27, 25, 28, 35, 98, 106, 95, 75, 73, 53, 110, 54, 25, 95, 24, 45, 31, 71, 59, 92, 76, 85, 64, 54, 64, 27, 56, 21, 70, 67, 62, 88, 71, 49, 53, 83, 50, 98, 86, 98, 22, 72, 68, 79, 87, 98, 80, 75, 45, 69, 63, 53, 77, 2, 89, 58, 31, 55, 62, 21, 52, 16, 38, 85, 98, 19, 74, 47, 74, 37, 86, 117, 85, 36, 15, 92, 72, 17, 61, 23, 98, 58, 48, 38, 48, 57, 46, 79, 88, 35, 32, 83, 104, 16, 26, 36, 54, 65, 40, 80, 60, 20, 100, 51, 12, 39, 91, 11, 55, 36, 57, 36, 68, 98, 84, 30, 44, 55, 15, 30, 78, 62, 11, 53, 31, 23, 25, 86, 68, 61, 60, 21, 37, 88, 83, 10, 92, 69, 36, 73, 53, 66, 44, 79, 64, 42, 90, 61, 20, 27, 118, 83, 34, 57, 8, 75, 50, 70, 82, 85, 46
              |17, 29, 53, 88, 28, 52, 60, 23, 38, 25, 73, 39, 31, 66, 59, 70, 59, 30, 36, 76, 81, 61, 58, 48, 46, 44, 86, 68, 24, 59, 60, 77, 43, 81, 49, 75, 22, 8, 68, 33, 21, 70, 80, 77, 77, 69, 32, 88, 18, 70, 5, 61, 57, 27, 43, 14, 24, 31, 19, 72, 27, 54, 34, 38, 25, 47, 32, 94, 52, 79, 6, 88, 9, 76, 54, 80, 57, 46, 54, 54, 77, 75, 56, 19, 11, 20, 16, 80, 49, 11, 50, 33, 64, 88, 42, 37, 14, 71, 60, 72, 31, 46, 72, 87, 33, 40, 62, 12, 83, 78, 41, 51, 9, 60, 85, 15, 64, 3, 99, 73, 53, 28, 55, 59, 45, 59, 55, 32, 86, 87, 41, 56, 54, 78, 37, 46, 54, 35, 60, 45, 36, 45, 63, 77, 71, 42, 32, 68, 49, 80, 93, 38, 34, 64, 26, 48, 92, 3, 67, 64, 29, 33, 9, 84, 44, 7, 42, 83, 47, 48, 53, 10, 18, 16, 61, 33, 75, 48, 41, 43, 92, 8, 80, 77, 84, 67, 23, 71, 46, 38, 35, 66, 60, 40, 83, 33, 41, 49, 57, 28, 49, 81, 32, 39, 52, 75, 32, 27, 27, 50, 90, 59, 79, 66, 61, 82, 45, 91, 41, 38, 89, 83, 81, 24, 83, 24, 50, 49, 36, 41, 39, 65, 64, 38, 36, 40, 9, 39, 19, 58, 43, 39, 37, 54, 47, 49, 55, 9, 28, 13, 42, 60, 38, 23, 58, 22, 34, 57, 45, 19, 59, 58, 11, 62, 69, 37, 52, 84, 14, 50, 57, 29, 50, 57, 52, 74, 33, 44, 87, 60, 12, 38, 17, 91, 34, 40, 75, 54, 42, 93, 41, 28, 62, 53, 78, 71, 28, 37, 47, 18
              |7, 19, 44, 90, 18, 34, 63, 6, 40, 38, 58, 25, 21, 71, 46, 53, 48, 24, 20, 64, 65, 53, 46, 50, 43, 27, 71, 51, 27, 43, 47, 81, 38, 67, 55, 68, 5, 10, 66, 43, 31, 63, 71, 69, 71, 63, 29, 90, 21, 56, 14, 71, 46, 42, 35, 26, 30, 35, 4, 59, 14, 67, 16, 44, 32, 50, 32, 90, 41, 76, 23, 75, 26, 77, 51, 67, 52, 28, 42, 68, 77, 77, 38, 23, 15, 16, 29, 71, 45, 6, 66, 22, 65, 72, 57, 45, 5, 57, 62, 56, 17, 29, 55, 87, 23, 23, 64, 12, 78, 62, 24, 53, 8, 58, 71, 33, 74, 21, 97, 75, 40, 44, 55, 61, 48, 65, 68, 26, 76, 78, 56, 64, 66, 72, 35, 58, 64, 17, 42, 60, 47, 50, 65, 63, 54, 25, 16, 59, 45, 64, 94, 47, 29, 69, 44, 64, 88, 20, 53, 53, 13, 23, 27, 80, 59, 19, 55, 77, 37, 40, 37, 16, 23, 19, 48, 31, 60, 31, 26, 51, 88, 20, 71, 65, 71, 56, 6, 71, 35, 29, 30, 55, 70, 23, 81, 47, 36, 41, 63, 26, 61, 84, 15, 25, 66, 66, 31, 10, 35, 34, 74, 44, 82, 73, 46, 75, 55, 89, 49, 27, 87, 84, 84, 42, 81, 41, 36, 33, 52, 45, 21, 47, 71, 52, 40, 35, 9, 40, 22, 52, 55, 29, 33, 66, 47, 32, 64, 18, 43, 31, 44, 51, 26, 15, 74, 38, 28, 64, 60, 8, 52, 71, 20, 64, 75, 49, 36, 79, 31, 43, 63, 36, 33, 43, 63, 60, 20, 46, 81, 56, 27, 37, 19, 88, 51, 23, 70, 68, 57, 77, 25, 39, 57, 64, 70, 69, 14, 20, 31, 26
              |19, 34, 28, 82, 12, 25, 58, 15, 38, 47, 38, 5, 11, 67, 26, 35, 28, 40, 2, 45, 46, 37, 27, 46, 34, 10, 51, 32, 30, 23, 27, 76, 28, 47, 54, 52, 20, 28, 55, 49, 39, 47, 53, 53, 56, 47, 24, 82, 41, 36, 30, 74, 27, 53, 22, 46, 35, 36, 22, 39, 26, 74, 11, 45, 37, 46, 29, 76, 22, 65, 41, 55, 42, 69, 41, 47, 40, 14, 23, 76, 68, 69, 26, 43, 35, 34, 40, 53, 34, 26, 76, 35, 59, 53, 66, 49, 25, 37, 56, 36, 4, 27, 37, 77, 11, 17, 59, 32, 64, 43, 19, 48, 27, 48, 51, 49, 76, 38, 84, 68, 21, 56, 47, 55, 46, 63, 75, 19, 58, 60, 65, 64, 71, 57, 28, 65, 67, 19, 27, 70, 53, 49, 58, 42, 36, 23, 4, 42, 34, 45, 84, 52, 45, 65, 58, 75, 74, 37, 33, 35, 22, 12, 42, 67, 69, 34, 63, 61, 21, 26, 17, 36, 30, 27, 28, 26, 40, 13, 31, 53, 73, 39, 53, 46, 51, 37, 15, 61, 18, 15, 23, 37, 73, 16, 69, 57, 25, 26, 61, 24, 68, 78, 17, 33, 74, 49, 28, 10, 41, 14, 55, 24, 75, 72, 26, 59, 59, 76, 53, 38, 75, 75, 78, 57, 70, 55, 16, 15, 64, 44, 8, 31, 70, 60, 39, 25, 26, 37, 42, 38, 62, 41, 26, 72, 42, 16, 65, 31, 54, 48, 41, 34, 35, 32, 84, 52, 21, 64, 71, 26, 37, 77, 33, 59, 72, 56, 17, 64, 50, 29, 61, 39, 15, 23, 68, 40, 6, 42, 65, 44, 46, 33, 39, 75, 64, 17, 57, 76, 67, 57, 8, 46, 44, 68, 52, 58, 7, 7, 12, 34
              |64, 87, 65, 48, 62, 98, 30, 73, 36, 35, 97, 73, 63, 24, 81, 102, 76, 89, 76, 88, 105, 64, 76, 32, 46, 83, 107, 99, 44, 88, 79, 32, 51, 101, 22, 69, 75, 63, 48, 27, 39, 66, 78, 71, 67, 64, 50, 47, 77, 93, 59, 3, 75, 35, 59, 70, 40, 38, 73, 85, 83, 13, 80, 29, 38, 32, 45, 70, 71, 55, 57, 100, 52, 42, 47, 91, 54, 87, 74, 18, 46, 40, 99, 78, 71, 79, 44, 80, 52, 67, 25, 91, 36, 112, 24, 25, 70, 91, 33, 96, 70, 97, 105, 54, 63, 88, 30, 71, 67, 106, 90, 34, 65, 45, 101, 51, 7, 58, 71, 37, 76, 36, 40, 32, 30, 20, 12, 55, 86, 85, 24, 14, 6, 66, 48, 16, 6, 86, 100, 25, 23, 26, 35, 97, 105, 93, 73, 72, 52, 108, 55, 23, 93, 24, 43, 30, 71, 57, 91, 75, 83, 62, 52, 64, 25, 53, 19, 70, 65, 61, 86, 69, 47, 51, 82, 48, 97, 84, 96, 21, 73, 66, 78, 86, 98, 79, 73, 45, 68, 62, 52, 76, 2, 88, 59, 29, 53, 61, 20, 50, 13, 39, 83, 95, 18, 73, 46, 72, 35, 84, 116, 84, 37, 16, 91, 72, 15, 62, 21, 96, 59, 48, 39, 46, 57, 44, 77, 87, 33, 30, 81, 103, 16, 24, 34, 53, 63, 38, 78, 59, 17, 98, 49, 10, 38, 89, 10, 53, 34, 55, 35, 67, 96, 82, 29, 42, 53, 14, 28, 76, 61, 10, 51, 30, 24, 22, 85, 68, 59, 59, 20, 35, 86, 81, 8, 91, 68, 35, 73, 52, 64, 42, 77, 65, 40, 88, 61, 18, 25, 117, 81, 32, 56, 6, 75, 50, 69, 80, 84, 44
              |16, 38, 42, 75, 21, 53, 47, 25, 24, 17, 67, 33, 23, 53, 51, 66, 50, 41, 33, 67, 74, 49, 49, 34, 33, 41, 79, 63, 10, 53, 51, 64, 30, 74, 36, 63, 26, 14, 54, 22, 10, 57, 68, 64, 65, 57, 20, 74, 31, 63, 11, 51, 48, 22, 32, 28, 11, 18, 24, 62, 34, 47, 34, 25, 13, 33, 19, 81, 43, 65, 16, 79, 13, 62, 40, 70, 44, 44, 46, 48, 64, 62, 56, 33, 24, 31, 9, 69, 37, 17, 46, 42, 50, 82, 36, 25, 20, 64, 46, 65, 27, 49, 68, 74, 25, 42, 48, 23, 70, 73, 43, 38, 16, 46, 77, 20, 53, 14, 86, 59, 45, 25, 41, 45, 31, 47, 47, 21, 75, 76, 35, 44, 45, 65, 25, 37, 44, 38, 58, 40, 26, 32, 50, 69, 67, 45, 29, 57, 37, 75, 80, 26, 45, 51, 27, 45, 79, 12, 60, 54, 34, 25, 14, 71, 39, 7, 34, 70, 37, 37, 48, 23, 4, 4, 53, 20, 68, 44, 47, 31, 79, 21, 68, 67, 76, 57, 25, 58, 37, 28, 23, 56, 50, 41, 70, 27, 29, 38, 44, 16, 40, 68, 35, 46, 45, 63, 19, 25, 15, 45, 85, 51, 65, 54, 56, 69, 34, 77, 29, 47, 75, 70, 68, 26, 70, 24, 43, 46, 33, 28, 37, 62, 52, 31, 23, 28, 13, 25, 32, 46, 34, 49, 24, 45, 33, 47, 44, 4, 23, 21, 28, 49, 46, 33, 54, 21, 22, 45, 41, 26, 47, 50, 3, 48, 57, 28, 47, 71, 24, 38, 44, 16, 46, 50, 42, 65, 27, 31, 74, 47, 24, 24, 30, 77, 33, 42, 62, 48, 37, 87, 38, 18, 49, 43, 66, 58, 24, 36, 43, 5
              |71, 96, 37, 27, 59, 84, 31, 75, 44, 69, 59, 59, 57, 38, 49, 71, 42, 101, 65, 42, 64, 28, 44, 37, 35, 68, 64, 68, 57, 60, 46, 35, 39, 57, 44, 17, 80, 78, 14, 60, 64, 20, 25, 18, 12, 18, 49, 28, 96, 55, 76, 58, 43, 74, 42, 95, 59, 51, 80, 43, 88, 72, 75, 49, 58, 38, 48, 13, 44, 6, 83, 50, 79, 21, 27, 43, 25, 72, 45, 77, 16, 23, 81, 98, 88, 92, 71, 28, 32, 79, 82, 98, 25, 69, 75, 55, 80, 52, 28, 59, 64, 90, 73, 17, 55, 80, 30, 86, 7, 69, 82, 33, 79, 22, 55, 84, 56, 82, 20, 26, 49, 77, 27, 29, 41, 40, 71, 51, 31, 30, 74, 47, 64, 10, 43, 67, 58, 83, 78, 79, 60, 43, 26, 55, 74, 87, 67, 28, 32, 71, 25, 57, 106, 37, 85, 85, 12, 79, 56, 37, 85, 54, 80, 4, 78, 74, 67, 12, 44, 38, 64, 88, 63, 64, 49, 48, 57, 66, 95, 51, 13, 88, 26, 39, 50, 38, 75, 15, 47, 49, 47, 36, 59, 79, 6, 72, 41, 38, 41, 53, 67, 30, 81, 97, 75, 23, 49, 71, 59, 64, 74, 54, 30, 46, 61, 14, 58, 13, 54, 101, 13, 20, 30, 86, 8, 83, 54, 68, 81, 44, 71, 77, 45, 70, 47, 42, 76, 43, 97, 26, 65, 104, 44, 68, 35, 71, 52, 71, 74, 87, 41, 32, 99, 92, 88, 79, 49, 46, 82, 85, 27, 70, 70, 30, 39, 64, 62, 8, 90, 35, 41, 55, 66, 52, 62, 49, 59, 39, 13, 21, 92, 43, 94, 11, 86, 80, 8, 77, 76, 74, 68, 63, 20, 59, 22, 11, 65, 71, 65, 65
              |39, 41, 41, 99, 35, 9, 78, 31, 60, 70, 30, 23, 34, 88, 29, 19, 35, 48, 21, 45, 35, 49, 34, 67, 54, 13, 41, 18, 53, 18, 32, 95, 48, 39, 76, 62, 34, 47, 71, 72, 62, 58, 60, 62, 67, 59, 46, 99, 54, 30, 50, 96, 34, 76, 40, 62, 58, 59, 37, 40, 34, 97, 21, 67, 60, 67, 51, 88, 33, 79, 60, 51, 62, 87, 59, 47, 56, 9, 32, 99, 85, 87, 4, 56, 51, 46, 62, 58, 51, 43, 98, 39, 77, 40, 89, 72, 42, 33, 75, 28, 27, 19, 20, 92, 33, 16, 79, 48, 75, 29, 16, 68, 45, 66, 45, 69, 98, 57, 96, 87, 28, 78, 66, 75, 68, 84, 98, 41, 62, 64, 88, 86, 94, 68, 49, 88, 90, 23, 5, 93, 75, 71, 77, 36, 18, 19, 25, 50, 51, 30, 100, 74, 51, 86, 79, 98, 84, 57, 27, 41, 30, 34, 63, 79, 92, 55, 85, 71, 36, 42, 13, 52, 53, 49, 30, 48, 33, 12, 29, 75, 83, 56, 59, 48, 47, 41, 31, 78, 32, 35, 45, 43, 96, 15, 82, 80, 45, 42, 82, 46, 91, 96, 24, 33, 97, 57, 50, 28, 64, 13, 40, 24, 94, 93, 19, 69, 82, 90, 75, 39, 90, 91, 96, 78, 84, 77, 23, 10, 86, 66, 16, 11, 91, 83, 62, 45, 45, 59, 55, 52, 85, 42, 47, 95, 62, 7, 88, 53, 77, 68, 63, 45, 36, 42, 107, 73, 43, 86, 94, 39, 51, 100, 54, 79, 92, 79, 15, 74, 68, 45, 82, 62, 11, 25, 90, 37, 28, 63, 75, 60, 64, 55, 52, 88, 86, 16, 69, 99, 90, 43, 15, 69, 59, 91, 60, 74, 29, 18, 13, 57
              |71, 89, 33, 65, 58, 65, 62, 70, 61, 85, 29, 50, 55, 71, 30, 43, 27, 96, 56, 12, 30, 28, 28, 60, 48, 54, 27, 41, 68, 38, 28, 71, 47, 22, 70, 23, 76, 80, 44, 80, 78, 25, 14, 21, 27, 27, 56, 66, 96, 27, 81, 89, 29, 92, 43, 99, 72, 66, 77, 17, 82, 99, 65, 69, 72, 61, 59, 42, 34, 43, 90, 12, 89, 58, 44, 10, 38, 56, 32, 103, 54, 60, 60, 98, 89, 90, 83, 11, 43, 79, 107, 90, 57, 33, 98, 76, 80, 23, 58, 30, 58, 74, 44, 55, 53, 67, 62, 87, 32, 37, 68, 57, 80, 46, 18, 95, 88, 88, 50, 62, 35, 95, 51, 59, 63, 71, 99, 54, 8, 10, 97, 77, 92, 29, 53, 92, 86, 72, 55, 102, 81, 67, 57, 22, 46, 72, 59, 20, 43, 38, 63, 79, 101, 69, 100, 109, 38, 86, 29, 22, 77, 53, 90, 37, 101, 81, 91, 27, 39, 39, 45, 90, 72, 71, 28, 57, 26, 50, 83, 75, 36, 92, 13, 9, 13, 19, 70, 50, 40, 48, 53, 20, 89, 65, 44, 92, 47, 38, 71, 60, 93, 68, 71, 86, 102, 18, 59, 65, 75, 47, 38, 34, 67, 79, 38, 24, 83, 49, 77, 91, 50, 58, 68, 101, 46, 98, 40, 50, 101, 65, 59, 52, 78, 92, 64, 48, 78, 59, 97, 33, 90, 95, 53, 95, 55, 53, 81, 78, 92, 97, 60, 27, 89, 88, 114, 94, 54, 76, 105, 82, 31, 99, 79, 62, 73, 86, 44, 31, 99, 38, 71, 71, 49, 34, 90, 19, 54, 59, 28, 38, 98, 57, 94, 45, 104, 67, 33, 103, 99, 37, 55, 80, 35, 88, 17, 44, 61, 59, 50, 76
              |42, 60, 62, 73, 46, 79, 46, 51, 33, 10, 90, 59, 48, 47, 74, 91, 71, 60, 59, 87, 98, 66, 71, 38, 46, 67, 102, 88, 28, 78, 73, 58, 47, 97, 32, 76, 51, 37, 61, 15, 18, 72, 84, 78, 77, 70, 40, 72, 48, 86, 33, 35, 70, 4, 52, 39, 24, 28, 49, 83, 58, 24, 60, 26, 22, 37, 35, 87, 65, 71, 27, 100, 22, 63, 52, 90, 57, 70, 68, 23, 66, 61, 82, 48, 42, 51, 17, 85, 52, 41, 20, 64, 52, 106, 11, 20, 44, 86, 48, 89, 53, 75, 93, 76, 49, 68, 48, 43, 80, 98, 69, 42, 39, 54, 99, 19, 38, 29, 91, 58, 68, 4, 48, 47, 34, 41, 25, 43, 91, 92, 10, 35, 26, 76, 41, 17, 28, 64, 84, 14, 15, 32, 51, 92, 93, 71, 55, 74, 52, 100, 79, 18, 64, 46, 11, 18, 87, 28, 84, 74, 59, 49, 22, 79, 13, 27, 14, 81, 59, 56, 74, 40, 27, 30, 76, 39, 91, 70, 71, 25, 88, 36, 84, 87, 97, 77, 51, 62, 59, 51, 43, 75, 33, 68, 76, 4, 47, 57, 39, 37, 19, 64, 61, 70, 21, 79, 36, 52, 19, 71, 109, 75, 62, 44, 81, 82, 21, 81, 22, 69, 79, 70, 64, 14, 75, 11, 67, 72, 7, 31, 63, 89, 42, 9, 30, 47, 37, 35, 48, 62, 15, 70, 42, 24, 41, 73, 32, 28, 3, 23, 35, 67, 69, 54, 28, 10, 43, 36, 14, 50, 63, 28, 26, 48, 50, 12, 72, 81, 27, 56, 39, 23, 72, 73, 24, 87, 52, 37, 85, 59, 33, 37, 47, 83, 11, 68, 72, 23, 11, 111, 65, 14, 62, 27, 81, 64, 50, 62, 69, 23
              |65, 91, 37, 21, 54, 84, 18, 70, 35, 58, 64, 57, 52, 25, 52, 75, 45, 95, 63, 49, 70, 30, 46, 26, 28, 67, 71, 72, 49, 62, 49, 23, 34, 64, 32, 25, 75, 70, 6, 49, 54, 25, 34, 27, 21, 23, 42, 21, 89, 60, 69, 45, 45, 63, 39, 87, 49, 42, 75, 49, 84, 59, 72, 38, 48, 27, 41, 24, 45, 8, 74, 59, 70, 10, 21, 51, 22, 72, 47, 64, 7, 12, 82, 91, 81, 86, 61, 37, 28, 72, 69, 93, 12, 77, 63, 44, 74, 58, 16, 64, 60, 88, 77, 16, 51, 78, 17, 80, 20, 75, 80, 22, 72, 13, 63, 74, 43, 73, 28, 14, 50, 66, 17, 17, 30, 28, 58, 45, 41, 40, 62, 34, 51, 20, 37, 54, 45, 80, 80, 66, 48, 31, 13, 61, 78, 85, 63, 34, 28, 77, 23, 45, 100, 24, 74, 72, 24, 71, 60, 41, 81, 50, 71, 17, 65, 66, 55, 23, 42, 36, 65, 81, 54, 57, 52, 41, 63, 66, 92, 39, 25, 80, 35, 47, 58, 43, 70, 2, 46, 46, 41, 40, 46, 77, 12, 60, 37, 36, 28, 46, 55, 21, 77, 93, 62, 31, 41, 67, 49, 64, 81, 56, 19, 33, 64, 25, 45, 18, 42, 97, 16, 14, 21, 75, 11, 72, 55, 68, 69, 34, 69, 80, 32, 58, 37, 37, 69, 34, 90, 26, 53, 100, 38, 55, 26, 71, 39, 63, 63, 77, 31, 34, 95, 86, 75, 68, 43, 34, 69, 79, 27, 57, 62, 17, 26, 52, 63, 21, 81, 33, 28, 45, 66, 54, 49, 55, 56, 29, 26, 18, 83, 35, 87, 19, 74, 78, 15, 64, 64, 81, 66, 52, 19, 47, 31, 4, 61, 68, 65, 55
              |17, 20, 56, 96, 30, 47, 68, 20, 45, 34, 73, 39, 33, 74, 60, 68, 61, 20, 35, 78, 80, 65, 60, 55, 52, 42, 85, 66, 31, 58, 61, 85, 48, 81, 57, 79, 17, 9, 74, 42, 30, 74, 83, 81, 82, 74, 38, 95, 10, 70, 11, 71, 59, 36, 47, 11, 32, 39, 14, 73, 20, 63, 30, 46, 34, 54, 39, 100, 54, 85, 13, 89, 18, 83, 60, 81, 62, 42, 56, 63, 84, 83, 51, 11, 2, 11, 25, 84, 55, 9, 59, 24, 71, 87, 51, 46, 9, 72, 67, 71, 31, 39, 69, 94, 35, 36, 69, 4, 89, 77, 36, 59, 8, 66, 86, 23, 73, 11, 106, 81, 54, 37, 62, 66, 52, 68, 64, 36, 89, 91, 50, 65, 64, 83, 43, 55, 63, 29, 56, 54, 46, 54, 71, 77, 68, 36, 31, 72, 55, 78, 100, 47, 24, 72, 34, 57, 98, 12, 67, 66, 23, 36, 18, 90, 53, 16, 52, 87, 50, 52, 51, 2, 25, 23, 62, 39, 74, 46, 33, 52, 98, 6, 83, 79, 85, 69, 20, 78, 48, 41, 40, 68, 69, 36, 90, 42, 46, 53, 66, 34, 58, 89, 27, 31, 61, 79, 38, 25, 35, 48, 89, 59, 87, 75, 60, 86, 54, 97, 50, 29, 95, 91, 89, 32, 90, 32, 50, 47, 44, 49, 36, 61, 73, 47, 44, 45, 11, 46, 11, 63, 52, 30, 42, 63, 54, 47, 64, 17, 37, 20, 49, 64, 30, 14, 67, 30, 38, 66, 53, 12, 64, 68, 19, 69, 78, 46, 51, 89, 19, 54, 66, 37, 48, 57, 61, 74, 34, 52, 92, 66, 13, 44, 9, 97, 41, 36, 80, 63, 51, 91, 39, 37, 68, 63, 82, 78, 28, 35, 45, 26
              |23, 39, 23, 78, 13, 27, 55, 20, 37, 49, 34, 0, 11, 65, 21, 33, 23, 46, 6, 39, 42, 32, 22, 44, 31, 11, 47, 30, 31, 20, 22, 73, 25, 42, 53, 47, 25, 32, 51, 49, 40, 42, 48, 48, 51, 42, 23, 78, 46, 31, 34, 73, 21, 55, 18, 50, 36, 35, 27, 34, 32, 75, 16, 44, 38, 44, 28, 72, 17, 60, 44, 50, 45, 65, 37, 42, 35, 15, 18, 77, 64, 66, 27, 48, 40, 40, 43, 47, 30, 30, 77, 40, 55, 49, 67, 49, 30, 32, 53, 32, 8, 31, 35, 72, 10, 21, 56, 37, 59, 40, 23, 45, 32, 45, 47, 52, 74, 42, 79, 65, 15, 58, 44, 52, 44, 61, 75, 18, 53, 54, 66, 63, 71, 52, 26, 65, 67, 24, 27, 72, 53, 48, 55, 38, 34, 27, 9, 36, 30, 42, 80, 51, 51, 63, 61, 77, 69, 40, 28, 29, 27, 11, 46, 62, 70, 37, 63, 56, 16, 21, 15, 41, 32, 29, 23, 25, 35, 12, 36, 52, 68, 44, 47, 41, 46, 31, 20, 57, 13, 12, 21, 31, 72, 20, 64, 58, 22, 22, 59, 23, 68, 74, 22, 38, 75, 44, 27, 15, 41, 12, 52, 19, 72, 70, 22, 54, 59, 72, 52, 43, 71, 71, 74, 60, 65, 58, 11, 14, 66, 43, 12, 30, 68, 61, 38, 22, 30, 35, 47, 33, 62, 46, 24, 72, 39, 16, 64, 34, 56, 52, 39, 29, 41, 37, 85, 54, 19, 63, 73, 31, 33, 77, 35, 56, 69, 56, 13, 59, 53, 24, 59, 39, 13, 18, 67, 35, 6, 40, 60, 40, 51, 31, 44, 71, 67, 21, 52, 77, 68, 54, 9, 47, 40, 67, 47, 54, 11, 11, 11, 36
              |35, 53, 12, 71, 23, 35, 51, 34, 38, 56, 25, 14, 20, 62, 9, 29, 9, 59, 20, 26, 33, 21, 8, 42, 28, 20, 37, 26, 37, 15, 9, 68, 23, 31, 52, 35, 39, 44, 43, 54, 47, 30, 35, 35, 39, 31, 26, 70, 59, 21, 46, 73, 8, 62, 15, 63, 42, 39, 41, 21, 45, 78, 29, 46, 43, 43, 31, 60, 4, 51, 56, 37, 55, 59, 31, 29, 27, 24, 4, 81, 56, 59, 33, 61, 53, 53, 51, 34, 24, 43, 82, 54, 50, 40, 73, 52, 43, 21, 48, 23, 21, 42, 31, 64, 18, 33, 52, 50, 47, 33, 35, 42, 44, 38, 35, 62, 74, 53, 68, 59, 2, 65, 39, 48, 44, 59, 78, 22, 39, 41, 71, 62, 73, 41, 27, 69, 68, 37, 30, 77, 57, 47, 50, 27, 31, 39, 23, 23, 24, 35, 71, 55, 64, 60, 69, 83, 57, 51, 18, 16, 41, 18, 56, 51, 76, 47, 67, 44, 9, 14, 15, 54, 40, 38, 11, 28, 25, 17, 48, 54, 56, 56, 34, 27, 34, 18, 34, 50, 6, 14, 23, 18, 73, 31, 54, 65, 21, 14, 57, 29, 71, 68, 35, 51, 79, 31, 30, 29, 47, 15, 44, 10, 66, 68, 17, 42, 61, 62, 55, 56, 61, 63, 68, 69, 56, 67, 5, 19, 73, 43, 24, 31, 66, 66, 40, 21, 42, 36, 60, 23, 66, 59, 25, 75, 37, 22, 64, 44, 63, 63, 39, 17, 54, 51, 91, 63, 23, 62, 79, 45, 22, 80, 45, 52, 66, 61, 13, 47, 65, 17, 57, 44, 17, 8, 70, 23, 18, 39, 48, 32, 63, 32, 57, 60, 75, 33, 41, 81, 74, 45, 20, 52, 30, 69, 34, 46, 24, 24, 17, 44
              |47, 71, 14, 44, 34, 61, 28, 50, 26, 50, 44, 35, 32, 38, 30, 53, 23, 76, 41, 33, 51, 9, 24, 24, 13, 45, 53, 50, 35, 40, 27, 42, 15, 46, 34, 18, 55, 54, 16, 44, 44, 13, 25, 20, 20, 12, 25, 44, 72, 40, 53, 54, 23, 57, 18, 72, 38, 31, 56, 31, 64, 63, 50, 33, 38, 24, 26, 38, 22, 25, 60, 45, 58, 32, 8, 35, 1, 49, 24, 67, 30, 33, 59, 74, 64, 68, 50, 27, 8, 55, 70, 73, 25, 58, 62, 40, 56, 38, 24, 44, 39, 66, 55, 38, 30, 56, 28, 62, 26, 54, 58, 21, 55, 12, 46, 63, 54, 59, 45, 33, 27, 60, 16, 25, 27, 37, 63, 26, 33, 33, 61, 42, 56, 20, 20, 56, 50, 58, 57, 66, 45, 30, 25, 42, 56, 62, 42, 17, 8, 56, 45, 43, 81, 36, 66, 72, 36, 57, 39, 21, 60, 30, 59, 28, 65, 51, 55, 25, 20, 14, 42, 64, 41, 41, 30, 25, 43, 43, 71, 39, 35, 65, 25, 31, 43, 24, 50, 23, 23, 25, 23, 21, 54, 55, 29, 56, 17, 13, 36, 29, 57, 42, 56, 72, 65, 20, 26, 46, 40, 41, 63, 34, 40, 46, 42, 24, 46, 37, 41, 76, 36, 36, 42, 67, 30, 64, 32, 45, 66, 29, 47, 57, 44, 56, 29, 18, 52, 24, 73, 4, 53, 79, 21, 59, 18, 48, 45, 49, 57, 65, 24, 13, 74, 67, 78, 60, 25, 41, 69, 60, 6, 63, 48, 28, 41, 50, 40, 26, 69, 11, 36, 36, 44, 32, 53, 36, 35, 22, 29, 5, 69, 22, 70, 36, 69, 56, 18, 67, 63, 63, 44, 45, 5, 52, 23, 19, 40, 46, 42, 43
              |16, 12, 54, 99, 28, 38, 71, 14, 48, 41, 66, 34, 31, 78, 55, 60, 57, 15, 29, 74, 73, 63, 56, 58, 52, 35, 79, 58, 34, 51, 56, 89, 48, 75, 62, 78, 9, 12, 75, 48, 36, 72, 81, 79, 81, 72, 38, 98, 12, 64, 16, 77, 55, 44, 45, 19, 37, 43, 7, 68, 10, 71, 23, 51, 39, 58, 40, 100, 50, 86, 22, 84, 26, 86, 60, 76, 62, 35, 52, 71, 86, 85, 43, 14, 8, 6, 32, 81, 54, 9, 68, 16, 74, 80, 59, 51, 6, 66, 70, 64, 26, 30, 62, 96, 33, 27, 73, 6, 88, 69, 27, 61, 10, 67, 80, 32, 80, 20, 106, 84, 49, 46, 64, 69, 56, 72, 72, 36, 86, 88, 58, 71, 71, 82, 44, 62, 70, 20, 47, 63, 52, 58, 73, 71, 60, 27, 25, 69, 54, 71, 103, 53, 20, 77, 43, 66, 98, 20, 61, 63, 13, 33, 27, 90, 61, 22, 59, 86, 47, 50, 45, 11, 30, 26, 57, 40, 68, 39, 24, 57, 97, 15, 80, 75, 80, 65, 14, 80, 45, 38, 40, 65, 76, 27, 90, 50, 45, 51, 70, 35, 65, 93, 18, 22, 69, 76, 40, 19, 41, 41, 81, 53, 90, 80, 54, 85, 60, 98, 55, 21, 96, 93, 93, 41, 91, 41, 45, 40, 53, 53, 29, 53, 78, 55, 48, 44, 13, 49, 13, 62, 59, 22, 43, 70, 56, 39, 70, 23, 45, 29, 52, 61, 21, 6, 76, 39, 38, 71, 62, 3, 62, 75, 25, 73, 82, 53, 44, 88, 28, 52, 70, 42, 41, 52, 68, 69, 30, 54, 91, 66, 23, 46, 10, 98, 51, 27, 80, 71, 59, 84, 32, 44, 67, 69, 79, 79, 24, 27, 38, 31
              |15, 40, 25, 70, 4, 40, 45, 19, 23, 33, 48, 16, 5, 53, 33, 48, 32, 45, 17, 49, 56, 33, 31, 32, 23, 26, 60, 45, 15, 35, 33, 63, 18, 55, 39, 48, 24, 23, 45, 34, 25, 43, 52, 50, 51, 43, 9, 70, 40, 44, 23, 59, 30, 40, 16, 41, 20, 20, 24, 44, 33, 59, 23, 29, 22, 32, 14, 70, 25, 56, 32, 61, 31, 57, 30, 52, 32, 29, 27, 61, 57, 57, 41, 42, 33, 36, 27, 52, 24, 23, 61, 42, 46, 64, 52, 34, 24, 45, 43, 46, 12, 40, 50, 67, 6, 31, 46, 30, 58, 55, 33, 34, 23, 38, 59, 38, 60, 30, 76, 56, 26, 43, 35, 42, 31, 49, 60, 6, 58, 60, 50, 49, 55, 52, 15, 50, 52, 30, 43, 56, 37, 34, 46, 51, 50, 36, 15, 40, 24, 57, 74, 36, 50, 51, 46, 61, 67, 28, 42, 36, 30, 6, 32, 60, 54, 24, 47, 56, 19, 21, 31, 33, 16, 14, 35, 11, 49, 27, 42, 37, 67, 34, 52, 49, 57, 39, 19, 51, 18, 10, 10, 38, 58, 30, 60, 43, 15, 22, 46, 8, 52, 65, 28, 43, 59, 47, 13, 16, 26, 28, 66, 33, 63, 57, 38, 55, 44, 68, 37, 46, 66, 64, 65, 45, 61, 43, 24, 30, 50, 29, 23, 46, 55, 45, 24, 14, 21, 22, 41, 32, 47, 49, 13, 57, 28, 31, 50, 21, 40, 39, 26, 32, 44, 35, 70, 39, 8, 49, 57, 28, 32, 62, 21, 46, 57, 41, 29, 58, 41, 22, 46, 24, 29, 31, 52, 46, 10, 28, 61, 36, 40, 19, 38, 67, 51, 31, 50, 61, 52, 68, 23, 31, 37, 52, 50, 49, 11, 22, 26, 21
              |61, 86, 54, 36, 56, 92, 16, 69, 29, 38, 86, 65, 56, 10, 71, 93, 65, 89, 69, 76, 94, 52, 65, 22, 36, 76, 96, 90, 40, 79, 68, 20, 41, 89, 13, 55, 72, 62, 35, 28, 39, 53, 65, 58, 53, 51, 43, 35, 78, 82, 59, 12, 64, 40, 50, 72, 37, 33, 71, 73, 81, 26, 75, 24, 35, 22, 38, 56, 61, 41, 59, 87, 54, 28, 36, 78, 42, 80, 64, 31, 33, 26, 92, 79, 71, 79, 45, 67, 41, 65, 37, 89, 22, 101, 34, 23, 68, 80, 20, 85, 64, 92, 95, 41, 56, 83, 17, 71, 53, 96, 85, 22, 64, 32, 89, 54, 11, 59, 57, 23, 66, 42, 27, 19, 21, 6, 25, 48, 72, 72, 33, 4, 18, 52, 39, 24, 12, 82, 92, 36, 25, 18, 21, 85, 96, 88, 67, 60, 41, 98, 43, 23, 93, 10, 50, 41, 57, 57, 81, 64, 80, 55, 54, 50, 35, 53, 26, 56, 56, 50, 78, 70, 45, 48, 72, 41, 85, 77, 93, 17, 59, 67, 65, 74, 85, 67, 69, 31, 58, 54, 44, 64, 12, 82, 45, 35, 44, 51, 7, 44, 23, 27, 79, 93, 30, 60, 39, 67, 34, 76, 105, 74, 25, 6, 81, 58, 17, 48, 19, 94, 45, 35, 27, 52, 43, 49, 68, 79, 42, 23, 75, 94, 4, 30, 28, 44, 61, 30, 79, 47, 24, 96, 41, 22, 28, 82, 6, 52, 39, 59, 26, 56, 93, 80, 42, 47, 46, 3, 39, 74, 49, 24, 50, 17, 12, 26, 76, 55, 63, 48, 7, 32, 78, 72, 17, 79, 61, 25, 59, 40, 67, 34, 77, 51, 48, 83, 47, 31, 34, 106, 74, 32, 43, 14, 62, 36, 63, 74, 76, 43
              |59, 83, 27, 32, 47, 74, 24, 63, 32, 57, 53, 48, 45, 33, 41, 64, 34, 89, 54, 39, 59, 19, 35, 26, 22, 58, 60, 61, 45, 52, 38, 34, 26, 53, 35, 16, 68, 65, 6, 49, 52, 14, 25, 18, 13, 12, 36, 32, 84, 49, 64, 52, 34, 63, 31, 82, 46, 39, 68, 38, 76, 64, 63, 38, 46, 27, 36, 26, 34, 12, 70, 49, 67, 21, 14, 41, 13, 62, 36, 68, 18, 23, 72, 85, 76, 80, 58, 28, 20, 66, 72, 86, 18, 66, 66, 44, 68, 47, 20, 53, 52, 79, 66, 25, 43, 69, 23, 74, 16, 64, 71, 22, 66, 10, 52, 72, 50, 69, 32, 24, 39, 66, 16, 21, 30, 34, 63, 38, 33, 32, 64, 40, 56, 13, 31, 58, 50, 71, 69, 69, 49, 33, 19, 50, 67, 75, 55, 23, 20, 66, 33, 46, 94, 31, 73, 75, 24, 67, 49, 30, 73, 42, 68, 16, 68, 61, 58, 17, 33, 27, 54, 76, 50, 52, 41, 35, 52, 56, 84, 41, 25, 76, 25, 36, 48, 32, 63, 12, 36, 38, 34, 29, 52, 68, 16, 61, 29, 26, 33, 40, 59, 32, 69, 85, 66, 21, 36, 59, 47, 54, 71, 45, 30, 41, 53, 18, 48, 24, 44, 89, 23, 24, 32, 74, 17, 71, 44, 58, 70, 33, 60, 69, 40, 60, 35, 30, 63, 31, 84, 16, 56, 92, 32, 60, 23, 61, 44, 59, 63, 74, 29, 23, 87, 80, 79, 67, 36, 39, 72, 72, 16, 63, 58, 23, 35, 54, 52, 17, 78, 24, 33, 43, 56, 44, 54, 44, 48, 27, 21, 8, 79, 31, 82, 23, 75, 69, 8, 68, 66, 71, 57, 51, 9, 51, 22, 7, 53, 59, 55, 52
              |39, 48, 29, 87, 30, 21, 68, 34, 53, 67, 20, 18, 28, 79, 16, 15, 22, 55, 19, 32, 26, 37, 21, 58, 45, 12, 32, 12, 49, 6, 19, 85, 39, 29, 68, 49, 38, 48, 60, 67, 58, 45, 47, 49, 54, 47, 39, 87, 59, 19, 51, 89, 22, 73, 31, 65, 54, 52, 40, 28, 41, 92, 24, 60, 55, 59, 45, 75, 21, 67, 61, 40, 62, 76, 48, 34, 44, 13, 20, 94, 73, 76, 17, 61, 54, 51, 60, 45, 41, 45, 94, 48, 67, 33, 85, 66, 44, 22, 65, 18, 24, 30, 17, 80, 27, 24, 69, 51, 62, 23, 25, 59, 47, 55, 35, 69, 90, 58, 83, 76, 16, 76, 56, 65, 59, 75, 92, 34, 49, 51, 84, 78, 87, 56, 41, 82, 83, 30, 14, 89, 70, 63, 67, 25, 16, 29, 24, 37, 41, 25, 88, 68, 59, 77, 78, 94, 72, 57, 16, 28, 36, 28, 63, 66, 88, 54, 80, 58, 25, 31, 3, 56, 50, 47, 17, 41, 22, 8, 39, 69, 70, 59, 46, 35, 36, 28, 34, 67, 22, 27, 37, 30, 88, 22, 70, 76, 36, 31, 74, 40, 85, 85, 30, 43, 92, 45, 44, 29, 59, 6, 35, 11, 83, 85, 7, 56, 76, 78, 69, 49, 77, 80, 85, 77, 72, 75, 12, 7, 83, 59, 18, 14, 83, 79, 55, 36, 46, 51, 60, 40, 79, 52, 40, 89, 53, 9, 80, 51, 74, 69, 54, 33, 46, 48, 103, 72, 36, 78, 90, 44, 39, 94, 53, 69, 82, 74, 4, 62, 70, 34, 74, 57, 6, 13, 84, 25, 24, 55, 62, 49, 66, 47, 57, 76, 84, 24, 57, 94, 86, 37, 15, 64, 47, 84, 47, 62, 27, 19, 9, 54
              |79, 103, 42, 36, 66, 87, 44, 82, 55, 80, 57, 64, 64, 50, 51, 71, 44, 108, 71, 39, 61, 33, 46, 49, 45, 72, 59, 68, 67, 61, 48, 46, 48, 53, 57, 18, 87, 86, 26, 72, 75, 23, 21, 17, 14, 22, 58, 37, 105, 54, 86, 71, 46, 86, 49, 104, 69, 62, 88, 41, 95, 84, 80, 61, 69, 50, 58, 10, 48, 18, 93, 44, 89, 33, 37, 39, 33, 76, 48, 89, 28, 35, 84, 106, 97, 100, 81, 24, 41, 87, 94, 104, 38, 65, 88, 67, 89, 51, 41, 58, 70, 94, 72, 25, 62, 85, 43, 95, 7, 67, 87, 45, 87, 33, 50, 95, 69, 91, 18, 38, 52, 89, 39, 42, 53, 53, 84, 59, 24, 22, 87, 60, 77, 13, 53, 79, 70, 89, 80, 91, 72, 55, 39, 52, 74, 91, 73, 29, 41, 68, 32, 69, 113, 49, 96, 97, 6, 89, 55, 38, 91, 62, 90, 9, 90, 84, 80, 8, 49, 45, 66, 97, 73, 74, 50, 57, 55, 70, 100, 63, 4, 97, 22, 36, 45, 38, 82, 28, 52, 56, 56, 36, 71, 83, 16, 84, 50, 44, 53, 62, 80, 41, 87, 103, 88, 22, 59, 77, 70, 67, 70, 55, 41, 59, 62, 11, 70, 17, 66, 107, 20, 30, 41, 97, 18, 94, 57, 71, 93, 56, 76, 78, 58, 82, 58, 51, 85, 54, 106, 33, 78, 110, 53, 80, 46, 74, 64, 81, 86, 97, 52, 35, 105, 99, 101, 90, 57, 59, 94, 92, 32, 83, 80, 43, 51, 76, 64, 6, 101, 42, 53, 66, 69, 54, 75, 47, 66, 50, 4, 30, 102, 53, 103, 14, 98, 85, 15, 89, 89, 69, 72, 74, 28, 72, 20, 24, 72, 76, 69, 75
              |40, 65, 38, 48, 35, 71, 19, 48, 9, 23, 70, 45, 35, 25, 54, 75, 49, 68, 48, 63, 78, 40, 49, 9, 20, 56, 81, 72, 19, 60, 52, 36, 24, 74, 8, 48, 51, 42, 32, 14, 21, 44, 56, 50, 48, 42, 22, 47, 59, 66, 39, 28, 48, 28, 31, 54, 17, 11, 50, 59, 60, 33, 54, 4, 16, 8, 17, 59, 44, 43, 41, 75, 36, 36, 24, 66, 30, 60, 47, 36, 38, 35, 72, 60, 52, 59, 27, 58, 26, 45, 39, 69, 24, 85, 31, 9, 47, 65, 20, 69, 43, 71, 77, 48, 36, 62, 21, 51, 51, 79, 64, 13, 43, 25, 76, 39, 29, 41, 62, 32, 48, 31, 19, 19, 5, 19, 33, 27, 64, 64, 30, 18, 27, 48, 20, 24, 22, 61, 72, 35, 14, 4, 23, 70, 77, 67, 46, 48, 26, 81, 53, 11, 73, 23, 39, 41, 58, 39, 64, 50, 59, 35, 37, 50, 34, 34, 24, 52, 38, 33, 59, 51, 24, 28, 55, 20, 70, 57, 72, 8, 59, 49, 56, 62, 72, 53, 48, 33, 40, 34, 24, 50, 27, 61, 47, 26, 26, 34, 17, 23, 26, 40, 58, 72, 34, 51, 18, 46, 15, 57, 89, 56, 37, 27, 63, 53, 16, 53, 9, 73, 51, 43, 40, 40, 46, 37, 50, 59, 35, 3, 54, 75, 25, 25, 7, 25, 41, 10, 60, 35, 22, 75, 22, 29, 13, 61, 19, 32, 28, 43, 8, 42, 72, 60, 47, 34, 26, 18, 37, 53, 36, 34, 31, 21, 29, 19, 57, 52, 47, 32, 17, 12, 58, 54, 24, 64, 40, 9, 56, 30, 50, 14, 58, 54, 40, 62, 43, 36, 32, 90, 54, 17, 34, 23, 53, 35, 42, 53, 56, 23
              |80, 104, 43, 34, 67, 89, 43, 83, 56, 80, 59, 66, 65, 49, 52, 72, 46, 110, 72, 41, 63, 34, 47, 49, 45, 74, 61, 70, 68, 63, 49, 45, 48, 55, 56, 19, 88, 87, 26, 72, 75, 24, 23, 19, 15, 23, 59, 35, 106, 56, 87, 70, 47, 86, 50, 105, 70, 62, 89, 43, 96, 84, 81, 61, 69, 50, 59, 8, 50, 17, 93, 46, 90, 32, 37, 41, 34, 77, 50, 89, 27, 34, 85, 107, 98, 101, 82, 25, 42, 88, 94, 105, 37, 67, 88, 67, 90, 52, 41, 60, 71, 96, 74, 24, 63, 86, 42, 96, 8, 69, 88, 45, 88, 33, 52, 95, 68, 92, 16, 37, 53, 89, 39, 42, 53, 52, 83, 60, 26, 24, 86, 59, 76, 14, 53, 79, 70, 90, 81, 91, 72, 55, 38, 54, 76, 93, 74, 31, 42, 70, 30, 69, 115, 48, 96, 97, 4, 90, 57, 40, 92, 63, 91, 8, 90, 84, 80, 10, 50, 46, 68, 98, 73, 75, 51, 58, 57, 71, 102, 63, 2, 98, 24, 38, 47, 40, 83, 27, 53, 57, 56, 38, 71, 85, 14, 84, 51, 45, 53, 63, 80, 40, 88, 104, 87, 24, 59, 79, 71, 69, 72, 57, 40, 58, 64, 13, 70, 16, 66, 109, 18, 28, 40, 98, 16, 95, 59, 72, 93, 56, 77, 80, 57, 82, 59, 51, 85, 54, 106, 34, 78, 112, 54, 80, 46, 76, 64, 82, 86, 98, 52, 37, 106, 100, 100, 91, 58, 59, 94, 93, 34, 82, 81, 42, 50, 76, 66, 7, 101, 43, 53, 67, 71, 56, 74, 49, 67, 50, 6, 31, 102, 54, 104, 12, 98, 86, 16, 89, 89, 71, 74, 74, 29, 72, 22, 23, 73, 77, 70, 75
              |60, 77, 25, 69, 47, 53, 59, 59, 55, 77, 18, 38, 44, 69, 18, 32, 16, 84, 44, 1, 22, 23, 17, 55, 42, 41, 22, 30, 59, 26, 16, 72, 39, 15, 66, 25, 64, 69, 44, 73, 69, 24, 18, 24, 30, 26, 47, 69, 84, 15, 70, 86, 18, 84, 34, 88, 63, 58, 65, 4, 69, 94, 52, 63, 64, 56, 51, 49, 23, 46, 80, 13, 79, 59, 40, 4, 33, 44, 21, 98, 56, 61, 48, 86, 78, 78, 74, 16, 36, 68, 100, 77, 55, 28, 92, 70, 68, 12, 56, 19, 46, 62, 33, 59, 42, 54, 60, 75, 37, 27, 56, 53, 69, 44, 14, 86, 86, 78, 57, 62, 23, 87, 48, 56, 58, 69, 94, 45, 18, 20, 90, 74, 88, 32, 45, 86, 82, 60, 43, 96, 75, 62, 56, 13, 35, 60, 48, 16, 36, 29, 67, 72, 88, 68, 92, 102, 45, 76, 17, 13, 65, 42, 80, 42, 95, 71, 85, 32, 29, 30, 32, 79, 63, 62, 16, 48, 16, 38, 70, 70, 43, 81, 17, 4, 11, 9, 59, 51, 29, 38, 44, 11, 86, 53, 48, 85, 39, 29, 68, 51, 88, 70, 59, 73, 96, 19, 51, 53, 67, 34, 33, 21, 68, 77, 25, 29, 77, 54, 71, 79, 55, 61, 70, 92, 50, 89, 28, 38, 93, 59, 46, 40, 76, 85, 58, 40, 67, 52, 85, 28, 84, 82, 44, 91, 50, 41, 77, 68, 84, 87, 54, 20, 76, 76, 109, 85, 44, 73, 98, 70, 26, 95, 69, 60, 72, 79, 31, 36, 89, 31, 68, 64, 36, 21, 85, 8, 43, 53, 35, 36, 87, 49, 82, 51, 96, 54, 35, 98, 93, 32, 42, 72, 32, 83, 20, 45, 49, 47, 37, 66
              |38, 57, 60, 73, 43, 76, 46, 48, 31, 7, 88, 56, 45, 48, 72, 88, 69, 57, 56, 85, 96, 64, 69, 37, 44, 64, 100, 86, 26, 75, 71, 59, 45, 94, 32, 75, 48, 34, 60, 14, 16, 70, 82, 77, 75, 69, 37, 72, 45, 84, 30, 37, 67, 1, 50, 36, 21, 26, 45, 81, 55, 26, 57, 25, 20, 36, 33, 87, 62, 71, 24, 98, 19, 63, 50, 88, 56, 67, 65, 26, 66, 61, 79, 45, 39, 48, 14, 84, 50, 38, 23, 61, 52, 103, 14, 19, 41, 84, 47, 86, 50, 72, 91, 76, 47, 65, 47, 40, 79, 95, 66, 41, 36, 53, 97, 17, 40, 26, 90, 58, 65, 3, 47, 46, 33, 41, 28, 41, 90, 90, 13, 36, 28, 75, 39, 19, 30, 60, 81, 17, 15, 32, 51, 90, 90, 68, 52, 72, 50, 97, 79, 18, 61, 47, 11, 21, 86, 25, 81, 72, 56, 46, 19, 78, 16, 24, 16, 80, 56, 54, 71, 37, 24, 27, 73, 36, 88, 67, 68, 25, 87, 33, 82, 85, 94, 75, 48, 61, 57, 49, 40, 73, 35, 64, 75, 5, 45, 55, 39, 34, 22, 65, 58, 67, 24, 77, 34, 49, 17, 68, 107, 73, 62, 45, 78, 80, 22, 81, 22, 66, 78, 70, 65, 13, 74, 10, 65, 69, 10, 30, 60, 86, 43, 11, 28, 44, 34, 34, 45, 60, 17, 67, 40, 27, 40, 70, 33, 25, 0, 21, 34, 65, 66, 51, 31, 8, 40, 37, 17, 47, 61, 31, 23, 47, 50, 13, 69, 80, 25, 54, 39, 21, 69, 71, 26, 85, 50, 36, 84, 57, 30, 35, 44, 82, 12, 65, 71, 26, 14, 108, 62, 12, 61, 29, 80, 63, 47, 59, 66, 20
              |64, 84, 25, 57, 51, 63, 52, 64, 52, 76, 30, 44, 48, 61, 26, 44, 21, 90, 51, 12, 34, 19, 23, 50, 39, 50, 33, 42, 59, 36, 24, 62, 38, 27, 60, 14, 70, 73, 35, 70, 68, 15, 6, 12, 18, 17, 47, 58, 89, 27, 73, 79, 23, 82, 35, 92, 62, 56, 71, 15, 76, 89, 59, 60, 63, 51, 50, 37, 28, 35, 82, 20, 80, 49, 34, 13, 28, 53, 26, 93, 45, 51, 59, 91, 82, 84, 74, 4, 33, 72, 97, 85, 47, 39, 89, 66, 73, 24, 48, 31, 52, 71, 45, 48, 46, 63, 52, 80, 25, 40, 65, 47, 73, 36, 25, 86, 78, 80, 45, 52, 30, 85, 41, 49, 53, 62, 89, 46, 8, 10, 87, 67, 82, 20, 44, 82, 76, 68, 54, 93, 72, 57, 48, 25, 47, 69, 53, 10, 33, 42, 55, 69, 95, 60, 91, 99, 33, 78, 29, 15, 72, 46, 81, 30, 91, 73, 81, 20, 31, 30, 42, 83, 63, 63, 25, 48, 28, 46, 79, 65, 31, 84, 5, 9, 20, 14, 64, 41, 33, 40, 44, 13, 79, 61, 36, 82, 38, 29, 61, 51, 84, 59, 66, 82, 92, 8, 50, 59, 66, 43, 44, 30, 58, 70, 36, 17, 73, 42, 67, 87, 43, 50, 59, 92, 38, 89, 35, 47, 91, 55, 54, 52, 68, 82, 55, 39, 71, 49, 90, 23, 80, 90, 44, 85, 45, 50, 71, 70, 83, 88, 50, 18, 84, 82, 104, 85, 45, 67, 95, 75, 22, 89, 70, 52, 64, 76, 40, 24, 91, 29, 61, 62, 45, 30, 80, 20, 48, 49, 23, 28, 90, 47, 87, 39, 95, 63, 24, 93, 89, 43, 50, 71, 25, 78, 8, 35, 54, 55, 46, 67
              |25, 50, 19, 60, 14, 48, 35, 30, 16, 34, 47, 21, 13, 44, 31, 51, 28, 55, 25, 44, 55, 25, 27, 23, 12, 32, 59, 48, 16, 36, 30, 53, 7, 53, 32, 39, 35, 32, 35, 31, 26, 34, 44, 41, 41, 33, 4, 60, 50, 43, 31, 52, 26, 41, 9, 50, 20, 16, 35, 40, 43, 55, 33, 24, 21, 23, 8, 59, 21, 45, 39, 56, 37, 47, 20, 47, 21, 36, 24, 58, 47, 47, 48, 52, 42, 46, 31, 45, 14, 33, 59, 53, 36, 63, 50, 29, 34, 43, 33, 46, 21, 50, 53, 56, 12, 40, 36, 40, 48, 55, 42, 25, 33, 27, 56, 43, 53, 37, 66, 46, 25, 44, 25, 32, 23, 40, 56, 5, 51, 52, 49, 42, 51, 42, 5, 46, 46, 40, 48, 54, 34, 26, 35, 49, 53, 46, 24, 33, 14, 58, 63, 32, 60, 42, 49, 60, 57, 35, 41, 31, 40, 11, 38, 49, 53, 30, 45, 47, 15, 13, 34, 43, 20, 20, 33, 5, 48, 33, 52, 32, 57, 43, 44, 44, 53, 34, 30, 40, 16, 9, 1, 32, 52, 39, 50, 42, 5, 14, 38, 8, 49, 55, 38, 53, 56, 39, 8, 26, 24, 32, 66, 33, 53, 49, 39, 46, 39, 57, 32, 57, 56, 53, 55, 49, 50, 46, 26, 35, 51, 22, 31, 51, 47, 44, 18, 4, 30, 14, 51, 23, 43, 59, 3, 52, 18, 37, 43, 27, 41, 45, 18, 25, 55, 46, 68, 42, 3, 41, 56, 39, 23, 57, 27, 36, 48, 38, 32, 48, 48, 14, 38, 21, 34, 30, 47, 44, 17, 19, 51, 25, 48, 10, 48, 57, 53, 40, 40, 58, 51, 68, 30, 30, 27, 47, 42, 38, 21, 30, 32, 24
              |68, 91, 30, 39, 55, 76, 38, 71, 46, 71, 49, 53, 52, 46, 40, 61, 34, 97, 59, 31, 53, 21, 35, 41, 34, 61, 52, 59, 57, 51, 37, 45, 37, 46, 50, 7, 76, 75, 20, 63, 65, 11, 13, 7, 2, 11, 47, 39, 94, 45, 75, 66, 35, 77, 38, 94, 59, 52, 77, 32, 84, 78, 69, 52, 59, 42, 48, 19, 37, 17, 82, 39, 79, 32, 27, 32, 23, 65, 37, 83, 27, 34, 73, 95, 86, 89, 71, 16, 30, 76, 87, 93, 32, 58, 80, 59, 77, 42, 35, 49, 59, 83, 63, 28, 51, 74, 38, 84, 6, 58, 76, 37, 76, 25, 44, 85, 65, 81, 27, 35, 41, 80, 31, 36, 45, 48, 78, 48, 20, 19, 79, 55, 71, 2, 42, 72, 64, 77, 69, 84, 64, 47, 33, 44, 64, 80, 61, 19, 30, 60, 36, 61, 102, 45, 87, 90, 16, 79, 46, 28, 80, 50, 80, 11, 83, 73, 73, 3, 38, 33, 55, 86, 62, 63, 39, 47, 46, 59, 89, 56, 15, 87, 14, 28, 39, 28, 71, 24, 40, 45, 45, 26, 66, 72, 17, 76, 39, 32, 48, 51, 73, 41, 75, 91, 81, 12, 48, 66, 61, 56, 63, 45, 40, 55, 52, 4, 63, 23, 58, 96, 24, 31, 41, 88, 19, 85, 46, 60, 85, 47, 64, 68, 54, 75, 49, 40, 74, 44, 94, 21, 71, 99, 43, 74, 37, 63, 59, 70, 77, 87, 43, 24, 94, 88, 94, 81, 46, 54, 87, 81, 21, 77, 70, 38, 48, 68, 54, 6, 91, 31, 48, 57, 58, 43, 69, 38, 54, 41, 8, 20, 91, 43, 92, 20, 89, 74, 7, 83, 81, 63, 61, 65, 17, 66, 11, 18, 60, 64, 58, 65
              |27, 11, 56, 108, 34, 23, 82, 19, 60, 58, 59, 33, 36, 91, 51, 49, 56, 18, 27, 70, 64, 65, 54, 70, 61, 28, 70, 48, 48, 44, 54, 100, 55, 68, 75, 80, 16, 29, 82, 64, 52, 75, 81, 81, 84, 76, 47, 108, 27, 57, 34, 92, 54, 62, 50, 37, 51, 56, 18, 65, 9, 88, 18, 64, 53, 69, 51, 105, 50, 92, 41, 79, 45, 95, 68, 72, 67, 26, 51, 89, 95, 95, 29, 28, 27, 19, 49, 80, 61, 25, 86, 9, 84, 70, 77, 66, 22, 60, 81, 57, 28, 13, 50, 104, 37, 15, 84, 25, 92, 59, 14, 72, 27, 75, 73, 51, 95, 38, 112, 94, 48, 64, 73, 80, 68, 85, 89, 43, 85, 87, 76, 85, 87, 86, 53, 79, 85, 9, 34, 81, 68, 71, 84, 64, 48, 11, 25, 70, 61, 60, 111, 68, 21, 89, 62, 84, 102, 39, 55, 62, 8, 38, 45, 95, 79, 39, 76, 89, 49, 54, 37, 29, 44, 40, 53, 49, 61, 32, 5, 72, 101, 34, 80, 72, 74, 64, 19, 88, 46, 43, 48, 64, 91, 16, 97, 68, 52, 54, 83, 45, 82, 103, 11, 5, 87, 77, 50, 22, 56, 35, 70, 48, 101, 94, 46, 87, 76, 104, 70, 10, 103, 102, 103, 60, 97, 59, 42, 32, 72, 66, 23, 40, 92, 72, 60, 51, 29, 60, 28, 66, 76, 13, 51, 87, 66, 29, 85, 39, 63, 48, 64, 63, 7, 15, 94, 57, 46, 85, 80, 17, 66, 92, 41, 84, 95, 70, 38, 92, 47, 57, 83, 57, 33, 48, 84, 64, 33, 66, 94, 72, 41, 56, 25, 103, 69, 15, 85, 89, 77, 73, 27, 60, 72, 85, 80, 86, 27, 22, 32, 47
              |40, 64, 6, 53, 27, 53, 34, 43, 26, 49, 38, 27, 25, 45, 23, 46, 17, 69, 33, 29, 45, 8, 17, 27, 13, 36, 48, 43, 32, 32, 20, 50, 11, 41, 38, 22, 48, 48, 25, 44, 42, 17, 27, 24, 26, 17, 21, 52, 66, 34, 48, 59, 16, 56, 10, 67, 36, 30, 49, 26, 56, 66, 42, 34, 36, 28, 24, 45, 14, 34, 56, 42, 54, 40, 13, 32, 9, 40, 16, 70, 38, 41, 51, 68, 59, 61, 47, 28, 8, 48, 72, 65, 32, 53, 63, 41, 50, 32, 31, 37, 31, 57, 48, 46, 23, 48, 35, 56, 33, 48, 50, 26, 49, 20, 42, 60, 59, 54, 52, 41, 19, 59, 22, 31, 30, 43, 66, 21, 34, 35, 62, 47, 59, 27, 17, 58, 54, 50, 49, 67, 46, 33, 32, 37, 49, 54, 34, 16, 8, 50, 54, 44, 74, 43, 65, 74, 43, 52, 32, 16, 52, 22, 55, 35, 66, 47, 57, 31, 11, 6, 33, 59, 37, 37, 23, 21, 37, 35, 62, 41, 42, 60, 27, 29, 39, 20, 43, 32, 14, 17, 18, 17, 58, 46, 37, 56, 12, 5, 41, 25, 60, 50, 48, 64, 67, 22, 23, 38, 39, 33, 57, 26, 48, 52, 34, 30, 49, 45, 43, 69, 44, 45, 50, 65, 39, 62, 23, 36, 65, 30, 38, 49, 50, 57, 29, 13, 46, 24, 67, 6, 55, 72, 17, 62, 21, 40, 50, 44, 56, 62, 25, 9, 66, 60, 80, 58, 19, 46, 69, 53, 7, 67, 44, 35, 48, 51, 31, 33, 65, 3, 41, 35, 35, 24, 57, 31, 27, 25, 35, 14, 65, 21, 64, 44, 69, 48, 25, 70, 64, 58, 35, 44, 13, 55, 25, 28, 33, 38, 34, 40
              |37, 11, 69, 120, 46, 34, 93, 30, 70, 64, 72, 47, 48, 101, 65, 61, 69, 12, 40, 83, 77, 78, 68, 80, 72, 41, 83, 60, 57, 58, 67, 111, 67, 81, 85, 93, 26, 36, 94, 71, 59, 88, 94, 94, 97, 89, 59, 119, 25, 71, 39, 100, 67, 67, 62, 36, 60, 65, 26, 78, 17, 94, 31, 73, 62, 80, 62, 117, 64, 105, 44, 92, 49, 107, 80, 86, 80, 39, 64, 94, 107, 107, 40, 26, 29, 20, 55, 94, 73, 32, 90, 8, 95, 82, 82, 74, 29, 73, 91, 70, 41, 23, 62, 116, 50, 28, 94, 28, 105, 71, 27, 83, 34, 87, 86, 53, 103, 42, 124, 105, 61, 68, 84, 91, 78, 95, 95, 55, 98, 100, 81, 94, 94, 99, 64, 85, 93, 23, 46, 85, 75, 80, 95, 77, 60, 23, 38, 83, 73, 72, 123, 76, 12, 99, 65, 88, 115, 43, 68, 75, 20, 50, 49, 108, 84, 45, 82, 102, 62, 67, 51, 31, 52, 49, 67, 60, 74, 45, 13, 80, 114, 35, 94, 85, 88, 77, 30, 100, 59, 55, 59, 78, 99, 30, 109, 73, 64, 67, 93, 56, 88, 114, 24, 9, 92, 91, 61, 34, 64, 48, 82, 61, 112, 103, 59, 101, 84, 117, 79, 4, 116, 113, 114, 62, 110, 63, 55, 45, 75, 75, 36, 52, 101, 78, 70, 63, 36, 70, 26, 79, 82, 1, 62, 93, 77, 42, 93, 46, 68, 50, 74, 76, 6, 17, 98, 61, 57, 94, 84, 23, 79, 98, 48, 94, 105, 77, 51, 105, 48, 69, 93, 65, 46, 61, 91, 77, 45, 76, 107, 84, 41, 67, 25, 116, 72, 28, 98, 94, 82, 85, 40, 67, 85, 93, 94, 98, 40, 36, 45, 55
              |47, 69, 8, 51, 34, 55, 37, 49, 32, 56, 35, 31, 31, 47, 22, 45, 15, 75, 37, 24, 42, 1, 16, 32, 19, 40, 44, 42, 39, 32, 19, 51, 18, 37, 42, 16, 54, 55, 24, 51, 49, 11, 20, 17, 20, 11, 28, 51, 72, 31, 55, 63, 15, 63, 17, 74, 43, 37, 55, 22, 62, 71, 47, 40, 43, 33, 30, 40, 16, 31, 63, 36, 61, 40, 16, 27, 10, 44, 17, 75, 37, 41, 53, 74, 65, 68, 54, 21, 13, 55, 78, 71, 34, 49, 69, 47, 56, 29, 33, 35, 37, 61, 47, 44, 29, 52, 37, 63, 28, 45, 54, 30, 55, 21, 38, 67, 62, 61, 48, 41, 20, 66, 25, 34, 35, 46, 71, 27, 27, 28, 68, 51, 64, 21, 24, 63, 59, 55, 50, 73, 52, 38, 34, 34, 48, 58, 39, 9, 13, 48, 52, 50, 80, 45, 72, 80, 37, 59, 30, 12, 58, 29, 62, 31, 72, 54, 62, 25, 16, 12, 35, 66, 44, 44, 22, 28, 34, 38, 67, 46, 37, 66, 20, 23, 34, 15, 49, 31, 18, 23, 25, 12, 62, 50, 34, 63, 19, 11, 45, 32, 65, 50, 53, 69, 73, 15, 30, 44, 46, 35, 54, 26, 48, 55, 34, 23, 54, 42, 48, 74, 41, 43, 50, 72, 35, 69, 25, 39, 72, 36, 43, 50, 53, 63, 35, 20, 53, 30, 73, 4, 61, 77, 24, 67, 26, 42, 54, 51, 63, 69, 31, 4, 72, 66, 86, 65, 26, 50, 76, 59, 3, 71, 51, 37, 50, 57, 33, 28, 72, 10, 45, 42, 38, 24, 62, 27, 32, 30, 29, 13, 72, 28, 71, 40, 75, 52, 21, 75, 70, 54, 39, 51, 11, 60, 18, 26, 39, 42, 37, 47
              |22, 5, 56, 105, 32, 30, 78, 16, 55, 51, 63, 34, 34, 86, 54, 55, 57, 12, 28, 73, 69, 65, 56, 65, 58, 31, 75, 53, 42, 48, 56, 96, 52, 72, 70, 80, 11, 22, 80, 57, 45, 75, 82, 81, 84, 75, 44, 105, 19, 61, 26, 86, 55, 54, 48, 28, 45, 50, 12, 67, 2, 81, 19, 59, 47, 65, 47, 104, 51, 91, 33, 82, 37, 92, 65, 75, 66, 30, 52, 81, 92, 92, 35, 20, 18, 11, 42, 81, 59, 18, 78, 7, 80, 75, 69, 60, 15, 64, 77, 61, 27, 21, 56, 102, 35, 20, 80, 16, 91, 64, 20, 68, 20, 72, 77, 42, 89, 30, 110, 90, 49, 56, 70, 76, 64, 80, 82, 40, 87, 88, 68, 79, 80, 85, 49, 72, 79, 13, 41, 73, 61, 66, 80, 68, 54, 18, 25, 70, 59, 66, 108, 62, 17, 84, 54, 76, 101, 31, 58, 63, 7, 36, 37, 94, 72, 32, 69, 89, 49, 53, 41, 21, 38, 34, 56, 45, 65, 35, 13, 66, 101, 25, 81, 74, 78, 65, 16, 85, 46, 41, 45, 65, 85, 21, 95, 60, 50, 54, 78, 41, 75, 99, 13, 11, 79, 78, 46, 20, 50, 38, 76, 51, 97, 88, 50, 87, 70, 103, 64, 12, 101, 99, 99, 51, 95, 51, 44, 36, 64, 61, 25, 47, 86, 65, 55, 49, 22, 55, 19, 65, 69, 14, 48, 80, 62, 34, 79, 32, 55, 39, 59, 63, 11, 6, 86, 49, 43, 79, 72, 9, 65, 85, 34, 80, 90, 63, 41, 91, 38, 55, 78, 51, 37, 50, 77, 67, 32, 61, 93, 70, 32, 52, 17, 102, 61, 20, 84, 81, 70, 79, 29, 53, 71, 79, 81, 84, 26, 25, 35, 40
              |32, 57, 12, 56, 20, 50, 33, 36, 19, 41, 43, 23, 18, 43, 27, 48, 22, 62, 28, 37, 50, 17, 22, 23, 9, 34, 54, 45, 23, 34, 25, 50, 4, 47, 33, 31, 41, 40, 29, 37, 33, 26, 36, 33, 34, 25, 12, 55, 58, 38, 39, 54, 21, 48, 5, 58, 27, 22, 41, 33, 49, 60, 37, 28, 28, 23, 15, 52, 17, 39, 47, 50, 45, 43, 14, 40, 14, 38, 19, 63, 42, 43, 49, 60, 50, 54, 38, 37, 7, 40, 65, 59, 33, 58, 56, 34, 42, 37, 30, 42, 25, 53, 50, 50, 16, 43, 34, 48, 40, 52, 46, 23, 40, 22, 49, 51, 55, 46, 59, 42, 21, 51, 21, 30, 25, 40, 60, 12, 43, 44, 54, 43, 54, 34, 9, 51, 49, 45, 48, 60, 39, 28, 32, 43, 51, 50, 28, 25, 7, 54, 58, 37, 67, 41, 56, 66, 50, 43, 37, 24, 46, 16, 46, 42, 59, 38, 50, 39, 11, 6, 33, 50, 28, 28, 28, 12, 43, 33, 57, 35, 50, 51, 36, 37, 47, 27, 36, 35, 13, 11, 9, 25, 54, 42, 43, 48, 3, 7, 38, 16, 53, 52, 42, 59, 61, 31, 15, 32, 31, 32, 62, 29, 49, 49, 36, 38, 43, 51, 36, 62, 50, 48, 52, 56, 44, 54, 24, 35, 57, 24, 34, 50, 47, 49, 22, 4, 38, 17, 59, 15, 48, 65, 8, 56, 17, 38, 45, 35, 48, 53, 20, 17, 60, 53, 73, 49, 10, 42, 62, 46, 15, 61, 35, 34, 47, 43, 31, 41, 56, 6, 38, 27, 34, 27, 51, 38, 21, 20, 43, 18, 56, 13, 56, 50, 60, 43, 32, 63, 57, 63, 32, 36, 19, 50, 34, 32, 26, 34, 32, 31
              |32, 58, 27, 52, 24, 60, 25, 39, 4, 27, 58, 33, 24, 33, 42, 63, 37, 62, 37, 52, 66, 30, 37, 12, 10, 44, 69, 59, 14, 48, 40, 43, 12, 63, 19, 41, 43, 36, 30, 21, 21, 36, 48, 43, 42, 35, 11, 51, 55, 54, 34, 40, 36, 34, 19, 52, 15, 8, 42, 49, 52, 44, 44, 12, 15, 11, 7, 57, 32, 41, 39, 65, 36, 39, 17, 55, 22, 48, 35, 47, 40, 38, 60, 56, 47, 52, 27, 50, 16, 38, 49, 61, 27, 74, 40, 18, 41, 53, 23, 57, 32, 61, 65, 50, 24, 51, 26, 45, 47, 67, 53, 14, 37, 22, 65, 41, 41, 38, 62, 37, 36, 37, 17, 22, 11, 28, 44, 16, 56, 56, 39, 29, 39, 42, 8, 35, 34, 51, 60, 45, 24, 14, 26, 59, 65, 57, 35, 39, 16, 69, 56, 21, 67, 31, 43, 51, 55, 36, 52, 39, 50, 23, 37, 47, 43, 31, 34, 47, 26, 22, 46, 46, 20, 22, 43, 9, 58, 45, 62, 20, 56, 45, 48, 51, 62, 42, 39, 34, 28, 22, 12, 40, 39, 50, 46, 34, 14, 23, 26, 13, 38, 46, 48, 63, 45, 43, 8, 36, 17, 45, 77, 44, 43, 37, 51, 47, 27, 53, 21, 65, 51, 46, 46, 44, 46, 41, 38, 47, 43, 9, 43, 63, 35, 34, 6, 13, 35, 2, 55, 26, 33, 68, 9, 41, 9, 50, 31, 28, 34, 43, 6, 32, 64, 53, 57, 37, 14, 29, 47, 46, 27, 45, 27, 26, 37, 28, 45, 48, 47, 21, 26, 13, 46, 42, 36, 53, 29, 8, 51, 24, 48, 2, 53, 53, 46, 51, 39, 47, 41, 79, 42, 22, 27, 35, 46, 34, 32, 42, 44, 21
              |48, 74, 35, 37, 40, 75, 9, 55, 14, 35, 68, 48, 40, 17, 52, 74, 46, 78, 52, 57, 75, 34, 47, 4, 17, 59, 77, 71, 28, 60, 50, 26, 23, 70, 10, 39, 59, 51, 21, 25, 32, 36, 48, 42, 38, 34, 27, 36, 69, 63, 49, 29, 45, 40, 31, 65, 28, 21, 58, 55, 68, 39, 59, 15, 26, 5, 23, 47, 42, 31, 52, 69, 48, 24, 17, 60, 23, 63, 45, 43, 26, 23, 75, 71, 62, 68, 39, 50, 22, 54, 47, 77, 13, 82, 41, 20, 56, 61, 8, 67, 48, 77, 77, 37, 39, 67, 10, 60, 40, 77, 69, 4, 53, 15, 71, 51, 29, 52, 51, 21, 47, 43, 9, 7, 7, 13, 39, 32, 56, 56, 39, 17, 32, 38, 22, 33, 26, 67, 74, 44, 25, 8, 12, 67, 77, 73, 51, 42, 22, 79, 42, 22, 82, 15, 50, 50, 47, 50, 62, 45, 66, 38, 49, 39, 43, 45, 33, 42, 37, 32, 60, 61, 34, 37, 53, 25, 67, 59, 78, 16, 48, 59, 49, 56, 67, 49, 55, 22, 40, 36, 27, 46, 29, 66, 35, 37, 26, 32, 12, 29, 34, 30, 64, 79, 42, 43, 24, 52, 26, 58, 86, 55, 27, 23, 63, 43, 23, 41, 19, 81, 39, 32, 30, 52, 35, 49, 50, 61, 46, 11, 58, 76, 21, 35, 16, 26, 50, 14, 70, 29, 31, 84, 24, 35, 9, 64, 21, 42, 40, 55, 10, 37, 80, 69, 55, 45, 29, 17, 47, 62, 30, 39, 41, 10, 21, 29, 58, 42, 59, 29, 12, 23, 60, 53, 29, 60, 44, 9, 46, 22, 61, 18, 68, 43, 51, 67, 33, 43, 42, 87, 57, 28, 26, 27, 45, 24, 48, 58, 58, 34
              |10, 20, 49, 91, 24, 42, 64, 14, 41, 33, 66, 32, 26, 70, 53, 61, 54, 23, 28, 71, 73, 58, 53, 51, 46, 35, 79, 59, 27, 51, 54, 81, 42, 74, 54, 73, 11, 4, 68, 40, 28, 67, 76, 74, 76, 67, 32, 91, 16, 63, 8, 69, 52, 36, 40, 18, 29, 35, 9, 66, 17, 63, 24, 42, 30, 50, 33, 94, 47, 79, 16, 82, 19, 79, 54, 74, 56, 36, 49, 63, 79, 78, 46, 17, 8, 13, 24, 77, 48, 2, 60, 24, 67, 80, 51, 43, 4, 65, 62, 64, 24, 35, 63, 89, 28, 30, 65, 6, 82, 70, 31, 54, 2, 60, 79, 26, 71, 13, 100, 76, 47, 38, 57, 62, 48, 64, 64, 30, 82, 84, 50, 62, 62, 76, 37, 54, 61, 24, 50, 55, 44, 50, 66, 70, 62, 32, 24, 65, 48, 72, 95, 44, 27, 69, 37, 58, 92, 13, 60, 59, 19, 29, 20, 84, 54, 14, 51, 81, 43, 45, 45, 9, 21, 18, 55, 33, 67, 39, 31, 49, 92, 12, 76, 72, 78, 62, 14, 73, 41, 34, 34, 62, 67, 30, 84, 42, 39, 46, 62, 28, 57, 85, 22, 29, 61, 72, 33, 18, 33, 41, 82, 52, 82, 72, 53, 80, 52, 91, 47, 29, 90, 86, 85, 34, 84, 34, 43, 41, 46, 45, 30, 55, 70, 47, 40, 38, 5, 41, 17, 56, 51, 31, 36, 62, 49, 40, 62, 14, 37, 23, 45, 57, 29, 15, 68, 32, 32, 63, 55, 9, 57, 67, 16, 65, 74, 45, 44, 83, 23, 47, 62, 34, 41, 50, 60, 67, 27, 47, 85, 60, 19, 39, 14, 91, 44, 30, 74, 63, 52, 85, 33, 36, 61, 61, 75, 72, 21, 28, 39, 23
              |67, 93, 59, 32, 62, 98, 19, 76, 35, 44, 90, 71, 62, 9, 75, 98, 69, 95, 75, 79, 98, 56, 70, 27, 41, 82, 99, 95, 47, 84, 73, 16, 47, 93, 19, 57, 79, 69, 36, 34, 46, 55, 66, 59, 55, 53, 49, 31, 85, 86, 65, 13, 68, 46, 55, 79, 44, 39, 77, 77, 88, 29, 81, 30, 42, 27, 44, 55, 66, 41, 65, 90, 60, 27, 39, 81, 45, 86, 68, 34, 31, 24, 98, 86, 78, 85, 51, 69, 45, 72, 41, 96, 23, 105, 38, 30, 75, 84, 22, 90, 70, 99, 100, 39, 62, 89, 19, 77, 54, 100, 91, 27, 70, 35, 93, 61, 10, 66, 55, 22, 71, 48, 31, 22, 27, 10, 28, 54, 74, 74, 38, 10, 22, 53, 45, 29, 17, 88, 98, 40, 31, 24, 23, 89, 100, 95, 73, 63, 45, 102, 39, 29, 100, 11, 56, 45, 56, 64, 85, 68, 86, 61, 61, 50, 40, 60, 31, 57, 61, 55, 83, 77, 51, 55, 76, 47, 89, 82, 99, 24, 58, 74, 67, 77, 88, 71, 76, 32, 63, 59, 50, 68, 14, 88, 44, 41, 49, 55, 12, 50, 28, 23, 85, 99, 34, 62, 45, 74, 40, 82, 109, 78, 21, 1, 86, 59, 23, 47, 26, 101, 43, 33, 23, 58, 42, 55, 74, 84, 47, 29, 81, 100, 3, 36, 35, 49, 68, 36, 86, 51, 30, 103, 47, 25, 33, 87, 12, 59, 45, 65, 32, 59, 100, 87, 45, 53, 52, 10, 43, 81, 52, 26, 57, 19, 8, 33, 81, 55, 69, 52, 12, 39, 84, 76, 22, 83, 67, 31, 59, 43, 73, 40, 84, 49, 53, 89, 48, 34, 39, 110, 80, 39, 46, 18, 64, 37, 69, 80, 81, 50
              |51, 70, 15, 64, 38, 49, 51, 50, 45, 67, 21, 30, 35, 62, 12, 33, 7, 76, 36, 11, 28, 14, 9, 46, 33, 35, 29, 30, 49, 22, 9, 65, 30, 22, 57, 22, 56, 60, 38, 63, 59, 19, 19, 22, 27, 21, 37, 64, 76, 17, 61, 77, 9, 74, 24, 79, 53, 48, 57, 7, 62, 85, 45, 53, 54, 47, 41, 48, 14, 42, 70, 23, 69, 54, 31, 14, 25, 38, 12, 89, 50, 55, 45, 78, 69, 70, 64, 18, 27, 59, 91, 70, 48, 34, 82, 60, 60, 14, 48, 21, 38, 57, 34, 55, 33, 48, 52, 66, 35, 31, 50, 44, 60, 36, 23, 76, 77, 68, 56, 56, 15, 77, 39, 48, 49, 61, 85, 35, 22, 24, 81, 65, 79, 29, 35, 77, 73, 53, 41, 86, 65, 52, 48, 19, 36, 54, 40, 10, 27, 33, 63, 63, 81, 60, 82, 92, 44, 66, 17, 3, 57, 33, 70, 40, 85, 62, 76, 31, 19, 20, 28, 70, 53, 52, 11, 38, 20, 32, 64, 60, 43, 72, 18, 11, 20, 1, 50, 45, 20, 28, 34, 3, 77, 47, 45, 75, 29, 19, 59, 41, 79, 64, 52, 67, 87, 17, 41, 45, 57, 29, 39, 16, 62, 69, 23, 28, 68, 51, 62, 72, 52, 56, 64, 82, 46, 79, 21, 33, 84, 50, 40, 39, 68, 76, 48, 30, 58, 43, 77, 19, 74, 76, 34, 81, 40, 36, 68, 59, 74, 77, 45, 11, 70, 68, 99, 75, 34, 65, 88, 62, 18, 86, 59, 52, 65, 70, 26, 35, 80, 21, 59, 54, 31, 16, 76, 13, 34, 44, 34, 28, 78, 40, 74, 49, 86, 48, 31, 89, 83, 39, 36, 63, 25, 74, 19, 39, 41, 40, 31, 57
              |32, 55, 8, 59, 19, 46, 38, 34, 24, 45, 38, 19, 16, 48, 21, 43, 17, 61, 25, 33, 45, 16, 17, 28, 14, 29, 49, 40, 27, 28, 20, 55, 9, 43, 38, 31, 40, 40, 32, 41, 37, 25, 35, 32, 34, 26, 15, 59, 58, 33, 40, 60, 16, 51, 2, 59, 31, 26, 40, 29, 48, 65, 34, 33, 32, 29, 19, 54, 11, 42, 49, 46, 47, 47, 18, 36, 17, 33, 14, 68, 45, 47, 44, 59, 50, 53, 41, 35, 11, 40, 69, 57, 37, 53, 60, 39, 41, 33, 35, 36, 23, 50, 45, 54, 14, 40, 39, 48, 41, 46, 42, 28, 41, 26, 45, 54, 60, 47, 61, 47, 16, 55, 26, 35, 30, 45, 65, 13, 41, 42, 59, 48, 59, 35, 13, 56, 54, 42, 43, 65, 44, 34, 37, 38, 45, 46, 25, 23, 11, 49, 61, 42, 66, 46, 59, 71, 51, 45, 31, 20, 44, 14, 48, 44, 63, 40, 54, 39, 5, 3, 28, 51, 31, 30, 23, 16, 37, 28, 54, 40, 51, 52, 34, 33, 42, 23, 34, 39, 8, 9, 12, 22, 59, 38, 46, 53, 7, 4, 43, 18, 58, 56, 40, 56, 66, 30, 18, 30, 35, 27, 57, 24, 54, 54, 31, 38, 48, 53, 41, 60, 52, 52, 56, 59, 47, 57, 18, 30, 61, 30, 30, 44, 52, 54, 27, 8, 38, 22, 59, 15, 53, 63, 12, 61, 23, 33, 51, 37, 52, 55, 25, 15, 58, 52, 78, 53, 12, 48, 66, 45, 15, 66, 37, 39, 52, 48, 26, 42, 58, 6, 43, 32, 29, 21, 56, 33, 18, 25, 44, 21, 57, 18, 56, 52, 64, 40, 34, 68, 61, 58, 28, 40, 21, 55, 33, 35, 24, 30, 27, 34
              |88, 113, 56, 18, 76, 103, 39, 93, 58, 81, 77, 78, 74, 41, 68, 89, 61, 118, 84, 59, 81, 47, 62, 49, 51, 87, 80, 87, 72, 79, 65, 33, 56, 74, 53, 35, 98, 94, 28, 71, 77, 38, 41, 36, 30, 37, 65, 19, 112, 73, 92, 61, 62, 85, 60, 110, 72, 65, 98, 61, 106, 77, 93, 61, 72, 50, 64, 12, 63, 18, 97, 65, 93, 23, 43, 60, 43, 91, 64, 82, 20, 25, 100, 114, 104, 109, 84, 44, 50, 95, 88, 115, 34, 86, 83, 66, 97, 70, 38, 77, 82, 108, 91, 10, 73, 99, 38, 103, 22, 87, 101, 45, 95, 36, 71, 97, 59, 96, 7, 28, 68, 88, 41, 39, 53, 46, 76, 68, 45, 43, 83, 53, 69, 28, 60, 74, 63, 101, 97, 86, 70, 54, 34, 72, 93, 105, 85, 47, 50, 89, 12, 67, 123, 41, 96, 92, 16, 94, 74, 56, 103, 72, 94, 17, 85, 89, 76, 27, 62, 57, 82, 104, 78, 80, 67, 64, 75, 85, 113, 61, 18, 103, 42, 56, 66, 57, 93, 25, 65, 67, 64, 54, 62, 97, 14, 82, 59, 56, 47, 69, 74, 26, 99, 115, 81, 41, 64, 89, 72, 83, 91, 72, 28, 48, 80, 30, 66, 6, 64, 119, 7, 16, 26, 98, 13, 95, 73, 86, 90, 56, 89, 96, 48, 79, 60, 59, 92, 57, 113, 45, 74, 122, 61, 73, 49, 90, 57, 86, 85, 100, 54, 51, 117, 109, 93, 91, 66, 52, 89, 102, 45, 74, 85, 38, 40, 74, 81, 23, 104, 54, 47, 68, 85, 71, 68, 67, 77, 52, 25, 38, 106, 58, 111, 8, 96, 99, 26, 82, 84, 90, 86, 74, 38, 65, 39, 25, 83, 89, 84, 79
              |36, 45, 30, 88, 28, 19, 68, 31, 52, 65, 23, 16, 27, 78, 18, 17, 24, 52, 17, 35, 29, 38, 22, 58, 44, 9, 35, 15, 47, 9, 21, 85, 38, 32, 67, 51, 35, 45, 60, 65, 56, 47, 49, 51, 56, 48, 38, 88, 56, 22, 48, 88, 23, 71, 30, 62, 52, 51, 37, 30, 38, 90, 21, 59, 54, 58, 43, 77, 22, 68, 58, 43, 59, 76, 48, 37, 45, 10, 21, 93, 74, 77, 16, 58, 51, 48, 58, 47, 41, 43, 93, 45, 67, 36, 83, 64, 41, 24, 65, 21, 22, 28, 19, 81, 26, 21, 69, 48, 64, 26, 22, 58, 44, 55, 37, 67, 89, 56, 85, 76, 17, 74, 56, 65, 59, 75, 91, 33, 51, 53, 82, 77, 86, 57, 41, 81, 82, 27, 13, 87, 68, 62, 67, 28, 18, 26, 21, 39, 41, 27, 89, 67, 56, 76, 76, 93, 73, 54, 19, 30, 33, 26, 60, 68, 86, 51, 79, 60, 25, 31, 2, 53, 48, 45, 19, 40, 25, 5, 36, 67, 72, 56, 48, 37, 39, 30, 31, 67, 22, 26, 36, 32, 87, 19, 71, 74, 36, 31, 73, 39, 84, 86, 27, 40, 91, 46, 43, 26, 57, 4, 38, 13, 83, 84, 10, 57, 74, 79, 68, 46, 79, 80, 86, 75, 73, 73, 12, 4, 81, 58, 15, 15, 82, 77, 53, 36, 43, 50, 57, 41, 78, 49, 39, 88, 52, 7, 79, 49, 72, 66, 54, 34, 43, 45, 101, 69, 35, 77, 88, 41, 40, 93, 50, 69, 82, 72, 4, 63, 67, 34, 73, 55, 3, 14, 83, 28, 22, 54, 64, 49, 64, 46, 54, 77, 82, 21, 58, 93, 84, 40, 12, 63, 48, 83, 49, 63, 25, 16, 6, 52
              |37, 52, 19, 77, 26, 30, 59, 34, 44, 61, 20, 14, 23, 69, 8, 22, 13, 58, 19, 26, 28, 27, 11, 49, 35, 16, 33, 19, 42, 8, 10, 75, 30, 28, 59, 40, 39, 46, 50, 60, 52, 35, 38, 40, 44, 37, 32, 77, 60, 17, 48, 80, 12, 67, 22, 65, 47, 45, 41, 21, 44, 84, 27, 52, 49, 50, 37, 66, 11, 57, 59, 36, 59, 65, 38, 29, 34, 19, 9, 87, 63, 66, 27, 62, 54, 53, 55, 37, 31, 45, 88, 52, 57, 36, 79, 58, 44, 18, 55, 18, 22, 38, 24, 70, 22, 29, 59, 51, 52, 27, 31, 49, 46, 45, 32, 66, 81, 56, 73, 66, 6, 70, 46, 55, 51, 66, 85, 28, 41, 43, 77, 69, 79, 46, 33, 75, 75, 35, 24, 83, 63, 54, 57, 24, 24, 35, 23, 28, 31, 29, 78, 61, 63, 67, 74, 88, 62, 54, 14, 19, 39, 22, 60, 56, 81, 51, 73, 49, 16, 21, 9, 55, 44, 42, 9, 34, 21, 13, 45, 60, 61, 58, 38, 28, 32, 20, 34, 57, 13, 20, 29, 21, 80, 28, 60, 70, 27, 21, 64, 34, 78, 75, 34, 48, 85, 35, 36, 29, 52, 10, 38, 5, 73, 75, 10, 46, 68, 68, 61, 54, 67, 69, 75, 73, 62, 71, 4, 13, 78, 50, 21, 24, 73, 72, 47, 28, 44, 42, 61, 30, 72, 57, 31, 81, 44, 17, 71, 48, 68, 66, 46, 23, 51, 50, 96, 67, 28, 69, 84, 45, 29, 86, 49, 59, 73, 67, 7, 52, 68, 24, 64, 50, 12, 4, 76, 21, 20, 46, 53, 38, 65, 38, 58, 66, 79, 29, 47, 87, 79, 40, 17, 58, 37, 76, 38, 52, 25, 22, 12, 49
              |23, 46, 43, 69, 26, 60, 40, 32, 19, 11, 70, 38, 28, 46, 54, 71, 52, 48, 39, 68, 78, 49, 51, 28, 30, 47, 82, 68, 9, 57, 54, 57, 29, 77, 29, 61, 34, 22, 50, 14, 2, 56, 67, 63, 62, 55, 20, 68, 38, 66, 18, 43, 50, 17, 33, 33, 5, 13, 32, 64, 42, 39, 41, 18, 6, 27, 17, 77, 45, 61, 20, 81, 16, 57, 37, 72, 42, 50, 48, 40, 58, 56, 62, 39, 31, 39, 7, 69, 35, 25, 39, 50, 45, 86, 30, 17, 28, 66, 40, 69, 33, 57, 73, 69, 29, 49, 42, 30, 67, 77, 51, 32, 24, 42, 80, 20, 45, 20, 82, 53, 48, 20, 37, 39, 25, 39, 40, 23, 75, 75, 28, 37, 37, 63, 23, 29, 36, 46, 64, 34, 18, 25, 44, 72, 72, 53, 35, 57, 35, 79, 74, 18, 53, 44, 24, 39, 76, 18, 64, 55, 42, 28, 17, 67, 32, 13, 27, 67, 39, 38, 53, 30, 7, 10, 56, 20, 71, 49, 55, 23, 76, 28, 67, 68, 77, 59, 32, 53, 39, 31, 23, 57, 42, 48, 66, 20, 29, 39, 37, 17, 32, 62, 43, 54, 38, 62, 17, 33, 7, 50, 89, 55, 59, 46, 60, 67, 26, 72, 21, 55, 70, 64, 62, 25, 65, 22, 47, 52, 28, 21, 43, 68, 44, 24, 17, 28, 21, 21, 39, 45, 26, 57, 24, 37, 29, 53, 36, 12, 18, 23, 23, 49, 54, 41, 48, 18, 23, 37, 34, 35, 46, 42, 10, 42, 49, 20, 52, 68, 27, 38, 37, 9, 51, 53, 34, 68, 32, 25, 72, 44, 29, 21, 37, 73, 29, 49, 59, 40, 30, 91, 44, 10, 47, 35, 65, 53, 30, 42, 49, 3
              |34, 48, 21, 79, 23, 27, 59, 30, 43, 59, 23, 11, 21, 69, 12, 23, 16, 54, 15, 30, 31, 29, 15, 49, 35, 12, 36, 20, 40, 9, 14, 76, 30, 32, 59, 43, 35, 43, 51, 58, 50, 38, 42, 43, 47, 39, 31, 79, 56, 20, 45, 80, 15, 65, 21, 61, 45, 44, 37, 25, 40, 83, 23, 51, 47, 49, 36, 69, 13, 59, 55, 40, 55, 67, 39, 33, 36, 16, 12, 86, 65, 68, 24, 58, 50, 49, 53, 41, 32, 41, 86, 48, 58, 38, 77, 57, 40, 22, 56, 22, 19, 34, 25, 72, 19, 25, 60, 47, 55, 29, 27, 49, 42, 46, 36, 63, 81, 53, 76, 67, 9, 68, 47, 56, 50, 66, 83, 26, 45, 47, 75, 69, 78, 49, 32, 74, 74, 30, 22, 81, 61, 54, 58, 27, 25, 31, 19, 31, 32, 31, 80, 60, 59, 67, 71, 86, 65, 51, 17, 23, 35, 20, 56, 59, 80, 47, 72, 52, 16, 22, 7, 52, 42, 39, 14, 32, 25, 9, 41, 60, 64, 54, 41, 32, 36, 24, 30, 58, 13, 18, 28, 25, 79, 24, 63, 68, 27, 22, 64, 32, 76, 77, 29, 44, 83, 39, 35, 25, 50, 7, 41, 9, 74, 75, 12, 50, 67, 70, 60, 50, 70, 71, 77, 70, 64, 68, 3, 10, 76, 49, 17, 23, 73, 70, 46, 27, 41, 42, 57, 32, 71, 53, 30, 80, 44, 14, 71, 45, 66, 63, 45, 26, 47, 46, 95, 64, 27, 68, 82, 41, 31, 85, 46, 60, 73, 65, 5, 55, 64, 25, 64, 48, 9, 8, 75, 25, 17, 46, 56, 40, 61, 38, 54, 68, 77, 25, 50, 86, 77, 43, 13, 56, 39, 75, 42, 54, 22, 18, 8, 46
              |33, 19, 57, 111, 38, 17, 86, 24, 65, 65, 55, 34, 39, 95, 50, 44, 55, 25, 28, 68, 60, 66, 53, 74, 64, 26, 66, 44, 53, 42, 52, 104, 58, 64, 80, 81, 22, 36, 85, 70, 58, 76, 80, 81, 85, 76, 51, 111, 35, 54, 41, 98, 53, 69, 52, 45, 57, 61, 25, 63, 16, 95, 19, 69, 59, 73, 56, 106, 50, 94, 48, 76, 52, 98, 70, 70, 69, 23, 50, 96, 98, 98, 23, 36, 35, 27, 56, 79, 63, 32, 93, 16, 87, 65, 84, 72, 29, 57, 84, 53, 31, 6, 45, 106, 40, 13, 88, 32, 93, 54, 11, 76, 34, 78, 70, 58, 100, 46, 113, 97, 47, 71, 76, 84, 73, 90, 96, 47, 84, 86, 83, 90, 93, 86, 56, 85, 91, 11, 29, 88, 74, 75, 87, 61, 43, 7, 28, 69, 63, 55, 114, 74, 27, 93, 69, 91, 103, 46, 52, 61, 14, 41, 53, 96, 86, 46, 83, 90, 50, 55, 35, 37, 50, 46, 52, 53, 58, 30, 4, 77, 102, 41, 80, 70, 72, 62, 24, 91, 47, 45, 51, 63, 97, 15, 98, 75, 55, 56, 88, 49, 88, 107, 14, 8, 93, 77, 55, 26, 62, 33, 65, 46, 104, 98, 43, 88, 82, 106, 76, 14, 105, 104, 107, 67, 99, 67, 41, 30, 79, 70, 23, 35, 97, 79, 65, 54, 36, 64, 35, 67, 82, 17, 54, 93, 70, 26, 90, 46, 70, 55, 68, 63, 11, 23, 101, 65, 49, 90, 87, 24, 67, 98, 48, 88, 99, 76, 36, 93, 54, 58, 88, 62, 31, 46, 90, 61, 35, 70, 94, 74, 49, 60, 33, 105, 77, 13, 86, 96, 84, 68, 26, 66, 74, 91, 80, 88, 31, 23, 30, 53
              |40, 44, 38, 96, 34, 13, 76, 33, 59, 70, 26, 22, 33, 86, 25, 15, 31, 51, 21, 40, 30, 46, 30, 66, 52, 13, 36, 14, 53, 14, 28, 93, 46, 35, 75, 58, 37, 49, 68, 72, 62, 54, 56, 58, 63, 56, 45, 96, 57, 26, 52, 95, 30, 76, 38, 64, 58, 58, 39, 36, 38, 97, 23, 66, 60, 66, 51, 84, 30, 76, 62, 47, 64, 84, 56, 42, 53, 11, 28, 99, 82, 85, 8, 59, 53, 49, 63, 54, 49, 45, 99, 43, 75, 36, 89, 71, 44, 29, 73, 24, 27, 24, 16, 89, 32, 19, 77, 50, 71, 25, 20, 66, 47, 63, 40, 71, 97, 59, 92, 84, 25, 79, 64, 73, 66, 83, 98, 40, 57, 59, 88, 85, 93, 65, 48, 88, 89, 26, 5, 93, 75, 70, 75, 32, 15, 23, 25, 46, 49, 26, 97, 74, 55, 84, 81, 98, 81, 58, 23, 37, 33, 33, 64, 75, 92, 56, 85, 67, 33, 39, 10, 55, 53, 50, 26, 47, 28, 11, 33, 75, 79, 59, 55, 43, 42, 37, 33, 75, 30, 34, 43, 39, 95, 18, 79, 80, 43, 39, 81, 46, 90, 94, 27, 37, 97, 54, 50, 30, 64, 11, 36, 20, 91, 92, 14, 65, 81, 87, 75, 43, 86, 88, 94, 79, 81, 78, 20, 9, 87, 65, 18, 8, 90, 83, 61, 43, 47, 57, 58, 49, 85, 46, 46, 95, 60, 7, 87, 54, 77, 70, 61, 42, 40, 45, 107, 74, 42, 85, 94, 42, 48, 100, 55, 77, 90, 79, 12, 71, 70, 42, 81, 62, 9, 21, 90, 33, 28, 62, 71, 57, 66, 53, 55, 85, 87, 19, 66, 99, 90, 39, 16, 69, 56, 90, 56, 71, 30, 19, 12, 57
              |50, 59, 33, 89, 41, 29, 73, 45, 60, 76, 10, 28, 38, 83, 16, 7, 23, 66, 30, 26, 15, 38, 22, 65, 50, 24, 21, 4, 58, 8, 19, 89, 45, 19, 75, 48, 49, 59, 62, 75, 68, 45, 43, 47, 53, 47, 48, 89, 70, 11, 62, 96, 23, 83, 37, 77, 63, 61, 52, 23, 52, 100, 36, 68, 64, 65, 53, 73, 25, 68, 72, 31, 73, 78, 52, 28, 47, 24, 23, 103, 75, 79, 24, 72, 66, 63, 70, 41, 46, 57, 104, 58, 71, 22, 94, 74, 56, 14, 70, 8, 35, 40, 9, 81, 37, 34, 74, 62, 61, 12, 35, 64, 58, 59, 25, 80, 96, 69, 82, 79, 21, 86, 61, 70, 66, 81, 100, 43, 44, 46, 93, 84, 95, 55, 49, 91, 90, 41, 18, 98, 79, 70, 71, 16, 10, 39, 35, 36, 46, 14, 89, 77, 70, 81, 89, 104, 70, 68, 9, 27, 47, 37, 74, 65, 97, 65, 89, 56, 31, 36, 14, 67, 60, 57, 16, 49, 13, 20, 49, 76, 68, 70, 42, 29, 27, 26, 45, 69, 29, 36, 45, 29, 95, 33, 70, 86, 43, 36, 79, 50, 93, 88, 41, 53, 101, 42, 52, 40, 68, 17, 24, 13, 86, 90, 6, 53, 84, 77, 77, 59, 77, 81, 88, 88, 72, 86, 19, 18, 93, 66, 30, 14, 88, 88, 62, 43, 57, 58, 71, 42, 88, 62, 47, 97, 59, 20, 87, 62, 83, 80, 61, 34, 56, 59, 112, 82, 44, 84, 100, 55, 41, 102, 63, 74, 87, 83, 15, 60, 81, 39, 79, 65, 17, 15, 92, 18, 34, 61, 60, 51, 78, 54, 68, 75, 94, 34, 57, 103, 95, 26, 26, 74, 49, 91, 44, 64, 38, 31, 20, 64
              |81, 107, 50, 17, 70, 97, 33, 86, 52, 75, 72, 72, 68, 36, 63, 85, 56, 112, 78, 55, 77, 41, 57, 43, 45, 81, 76, 82, 66, 73, 59, 30, 49, 70, 48, 30, 91, 87, 22, 65, 71, 33, 37, 31, 25, 31, 59, 18, 106, 69, 86, 57, 56, 80, 54, 104, 66, 59, 91, 56, 100, 72, 87, 55, 65, 44, 57, 11, 57, 11, 91, 62, 87, 18, 37, 56, 36, 85, 58, 77, 14, 20, 95, 107, 98, 103, 78, 40, 43, 89, 83, 109, 28, 82, 78, 60, 91, 65, 32, 73, 75, 102, 86, 6, 67, 93, 32, 96, 18, 82, 95, 39, 88, 30, 67, 91, 55, 90, 11, 23, 62, 82, 34, 33, 47, 41, 71, 62, 42, 41, 77, 48, 64, 23, 53, 69, 58, 95, 91, 81, 64, 48, 29, 68, 88, 99, 78, 42, 43, 84, 13, 61, 117, 36, 90, 87, 14, 88, 69, 50, 96, 66, 88, 13, 80, 82, 70, 23, 56, 50, 77, 98, 71, 73, 62, 58, 70, 79, 107, 55, 16, 97, 38, 52, 62, 52, 86, 18, 59, 61, 57, 49, 58, 91, 8, 76, 52, 50, 42, 63, 69, 23, 93, 109, 76, 36, 58, 82, 66, 77, 87, 67, 24, 44, 75, 26, 60, 2, 58, 113, 1, 12, 23, 92, 6, 89, 67, 81, 85, 50, 83, 91, 44, 74, 54, 53, 86, 51, 107, 39, 68, 115, 55, 68, 43, 84, 52, 80, 79, 94, 48, 45, 111, 103, 89, 85, 59, 47, 84, 96, 39, 70, 79, 32, 36, 68, 75, 19, 98, 47, 42, 62, 79, 65, 63, 62, 71, 46, 22, 32, 100, 52, 104, 6, 90, 93, 21, 77, 79, 86, 80, 68, 32, 60, 35, 18, 77, 83, 78, 72
              |35, 61, 23, 48, 26, 60, 23, 42, 9, 33, 55, 33, 25, 32, 39, 60, 33, 66, 37, 47, 62, 25, 34, 11, 4, 44, 65, 57, 19, 46, 37, 41, 9, 59, 21, 35, 46, 41, 25, 27, 27, 30, 42, 37, 36, 29, 13, 48, 59, 50, 39, 42, 32, 40, 17, 57, 21, 14, 46, 44, 55, 48, 45, 17, 21, 11, 11, 51, 29, 36, 45, 60, 41, 35, 11, 50, 16, 48, 31, 52, 35, 35, 60, 61, 51, 57, 33, 44, 10, 42, 54, 64, 24, 70, 46, 23, 45, 49, 20, 54, 33, 62, 62, 45, 25, 52, 24, 50, 41, 64, 55, 12, 42, 17, 60, 47, 43, 44, 56, 34, 33, 43, 13, 20, 13, 28, 48, 17, 50, 50, 44, 31, 42, 36, 8, 40, 37, 53, 59, 50, 29, 16, 23, 55, 63, 58, 36, 33, 10, 66, 52, 26, 71, 30, 49, 56, 50, 42, 49, 34, 52, 24, 42, 41, 48, 36, 39, 41, 23, 18, 45, 51, 25, 27, 40, 11, 54, 44, 64, 23, 50, 51, 42, 46, 57, 38, 42, 29, 25, 21, 13, 35, 42, 51, 40, 39, 11, 19, 26, 16, 42, 43, 50, 65, 50, 37, 11, 38, 23, 43, 74, 41, 40, 37, 48, 41, 31, 48, 25, 68, 46, 42, 43, 50, 40, 47, 35, 46, 48, 13, 44, 61, 35, 39, 12, 11, 39, 6, 60, 20, 37, 71, 9, 45, 6, 49, 33, 34, 40, 49, 8, 27, 67, 57, 62, 43, 15, 30, 52, 50, 22, 49, 33, 24, 36, 33, 43, 42, 53, 16, 26, 19, 45, 39, 39, 49, 30, 8, 45, 18, 54, 5, 58, 48, 52, 52, 33, 52, 47, 75, 42, 28, 21, 38, 40, 28, 33, 43, 43, 27
              |69, 94, 61, 34, 64, 100, 22, 77, 37, 44, 93, 73, 64, 12, 78, 100, 72, 96, 77, 82, 100, 59, 72, 29, 43, 84, 102, 97, 48, 86, 75, 18, 49, 95, 21, 60, 80, 70, 39, 35, 47, 58, 69, 62, 57, 56, 51, 33, 86, 89, 66, 11, 71, 46, 57, 79, 45, 41, 79, 80, 89, 28, 83, 32, 43, 29, 46, 58, 68, 44, 66, 93, 61, 29, 42, 84, 48, 88, 71, 33, 34, 27, 100, 87, 79, 87, 52, 72, 48, 73, 39, 97, 26, 107, 38, 31, 76, 87, 25, 92, 72, 100, 102, 41, 64, 91, 21, 78, 56, 103, 93, 29, 72, 37, 95, 61, 8, 67, 57, 24, 73, 47, 34, 25, 29, 13, 26, 56, 77, 76, 37, 11, 20, 56, 47, 28, 16, 90, 100, 39, 32, 26, 25, 92, 103, 96, 75, 65, 48, 105, 41, 30, 101, 13, 55, 44, 59, 65, 87, 70, 88, 63, 61, 53, 38, 61, 31, 60, 63, 58, 86, 77, 52, 56, 79, 49, 92, 85, 101, 25, 61, 75, 70, 80, 91, 73, 77, 34, 66, 61, 52, 70, 12, 90, 47, 40, 52, 58, 14, 52, 27, 25, 87, 101, 32, 65, 47, 76, 41, 84, 112, 81, 23, 4, 89, 62, 23, 49, 27, 102, 46, 35, 25, 58, 45, 55, 76, 87, 46, 31, 83, 102, 5, 36, 36, 52, 69, 38, 86, 54, 29, 104, 49, 24, 35, 89, 12, 60, 45, 65, 34, 62, 101, 88, 43, 53, 54, 11, 42, 82, 55, 24, 58, 21, 11, 33, 84, 58, 70, 55, 14, 40, 86, 79, 21, 85, 69, 33, 62, 45, 74, 42, 85, 52, 53, 91, 51, 33, 38, 112, 82, 39, 49, 17, 66, 40, 71, 82, 84, 51
              |22, 35, 56, 87, 33, 58, 58, 30, 37, 20, 78, 44, 35, 63, 64, 76, 63, 35, 42, 80, 86, 63, 62, 46, 47, 50, 91, 73, 24, 64, 64, 74, 44, 86, 46, 77, 28, 14, 68, 29, 18, 72, 82, 79, 79, 71, 34, 86, 23, 75, 11, 57, 61, 21, 46, 16, 23, 30, 26, 76, 34, 49, 40, 35, 24, 45, 33, 94, 56, 79, 2, 92, 3, 75, 54, 83, 58, 52, 58, 48, 76, 74, 62, 23, 17, 26, 12, 83, 51, 18, 44, 39, 63, 93, 36, 33, 21, 76, 58, 77, 37, 52, 78, 87, 37, 47, 60, 18, 84, 84, 48, 50, 16, 60, 90, 9, 60, 4, 99, 71, 57, 22, 55, 57, 43, 57, 50, 35, 89, 90, 35, 53, 49, 79, 39, 40, 50, 41, 66, 39, 32, 43, 62, 82, 77, 49, 37, 71, 51, 86, 92, 34, 39, 62, 20, 42, 93, 4, 72, 67, 36, 37, 3, 85, 38, 8, 37, 84, 50, 51, 58, 15, 18, 18, 66, 34, 79, 53, 47, 40, 93, 11, 82, 81, 89, 71, 30, 71, 50, 42, 37, 69, 56, 47, 83, 27, 43, 52, 54, 30, 43, 79, 39, 45, 46, 77, 33, 33, 24, 55, 96, 63, 76, 62, 67, 83, 41, 90, 37, 44, 88, 82, 79, 17, 83, 17, 55, 55, 29, 39, 45, 71, 61, 33, 35, 42, 16, 38, 23, 60, 38, 45, 38, 48, 47, 55, 52, 11, 22, 8, 41, 63, 45, 29, 52, 15, 36, 54, 38, 26, 61, 53, 11, 60, 67, 32, 57, 85, 10, 52, 54, 27, 55, 62, 47, 78, 38, 43, 88, 61, 11, 38, 22, 91, 27, 47, 76, 48, 36, 98, 47, 24, 64, 49, 80, 71, 34, 43, 53, 17
              |41, 41, 44, 102, 37, 8, 81, 33, 63, 73, 31, 26, 36, 91, 31, 19, 38, 48, 24, 47, 35, 52, 36, 70, 57, 16, 41, 19, 56, 21, 34, 98, 51, 40, 79, 64, 36, 49, 74, 74, 64, 60, 62, 65, 69, 62, 49, 102, 55, 32, 52, 99, 37, 78, 43, 63, 61, 61, 39, 42, 35, 100, 23, 70, 63, 70, 54, 90, 36, 82, 62, 52, 64, 90, 62, 48, 58, 12, 35, 102, 88, 90, 2, 57, 52, 47, 65, 60, 54, 45, 101, 39, 80, 40, 92, 75, 43, 35, 78, 30, 30, 19, 20, 95, 36, 17, 82, 49, 77, 29, 17, 71, 47, 69, 46, 71, 101, 59, 98, 90, 31, 81, 69, 78, 71, 87, 101, 44, 64, 66, 90, 89, 96, 71, 52, 91, 93, 24, 4, 96, 78, 74, 80, 38, 18, 19, 27, 52, 54, 30, 103, 77, 51, 89, 82, 100, 87, 59, 29, 44, 31, 37, 65, 81, 94, 57, 88, 74, 38, 45, 16, 54, 55, 52, 32, 51, 34, 15, 29, 78, 86, 58, 61, 50, 48, 44, 33, 81, 35, 38, 48, 45, 98, 17, 85, 82, 48, 45, 85, 49, 93, 99, 26, 33, 100, 60, 53, 31, 66, 16, 40, 27, 97, 96, 21, 71, 85, 93, 78, 39, 92, 94, 99, 80, 87, 79, 26, 13, 89, 69, 19, 10, 94, 86, 65, 48, 47, 62, 56, 54, 87, 42, 50, 98, 65, 10, 91, 55, 79, 70, 65, 48, 36, 43, 110, 76, 46, 89, 96, 41, 54, 103, 57, 82, 95, 82, 18, 77, 70, 48, 85, 65, 14, 28, 93, 39, 31, 66, 77, 63, 66, 58, 53, 91, 88, 17, 72, 102, 92, 43, 18, 72, 62, 93, 62, 77, 32, 20, 16, 60
              |30, 54, 42, 61, 30, 65, 33, 39, 14, 11, 72, 42, 31, 38, 55, 74, 52, 56, 43, 68, 79, 46, 52, 22, 26, 51, 83, 71, 11, 60, 54, 49, 27, 77, 21, 57, 41, 30, 44, 8, 7, 53, 64, 59, 58, 51, 21, 61, 46, 67, 26, 35, 50, 17, 33, 41, 6, 9, 39, 64, 50, 33, 47, 10, 4, 21, 16, 71, 46, 55, 28, 80, 23, 49, 33, 71, 38, 55, 48, 35, 51, 48, 67, 47, 39, 47, 14, 66, 32, 33, 35, 58, 38, 87, 26, 9, 36, 67, 33, 70, 37, 63, 76, 62, 32, 55, 34, 38, 62, 79, 57, 26, 32, 36, 80, 26, 38, 28, 75, 46, 49, 21, 31, 32, 18, 31, 34, 25, 72, 73, 25, 29, 30, 58, 21, 24, 28, 52, 68, 30, 11, 18, 37, 73, 75, 59, 40, 55, 32, 81, 67, 11, 61, 36, 27, 36, 70, 26, 65, 54, 49, 31, 24, 62, 29, 21, 21, 63, 39, 37, 56, 38, 13, 17, 57, 19, 72, 53, 62, 15, 71, 36, 65, 67, 77, 58, 39, 46, 40, 33, 23, 55, 34, 54, 59, 18, 28, 38, 29, 19, 27, 54, 49, 62, 33, 59, 16, 38, 1, 54, 91, 57, 51, 38, 62, 63, 19, 66, 13, 63, 64, 57, 54, 28, 59, 25, 49, 55, 27, 14, 48, 72, 36, 20, 11, 27, 29, 16, 47, 42, 21, 64, 22, 31, 23, 57, 28, 20, 18, 30, 17, 48, 62, 48, 44, 21, 24, 29, 32, 42, 43, 36, 18, 34, 41, 15, 55, 63, 34, 36, 29, 3, 55, 54, 27, 68, 36, 19, 67, 40, 36, 18, 45, 67, 30, 55, 54, 35, 27, 92, 49, 6, 43, 28, 62, 48, 35, 47, 52, 11
              |29, 34, 36, 93, 25, 12, 70, 22, 51, 60, 34, 15, 24, 80, 27, 26, 33, 41, 11, 46, 40, 45, 31, 59, 47, 4, 46, 25, 44, 20, 30, 88, 40, 43, 67, 59, 25, 37, 66, 62, 52, 54, 58, 59, 63, 55, 37, 93, 46, 33, 40, 87, 31, 66, 33, 53, 48, 49, 28, 41, 27, 88, 11, 58, 50, 59, 42, 84, 29, 74, 50, 54, 52, 80, 52, 48, 50, 1, 28, 90, 79, 81, 13, 48, 42, 38, 52, 57, 45, 34, 89, 33, 70, 47, 79, 62, 32, 35, 68, 32, 17, 18, 28, 87, 24, 9, 72, 38, 71, 36, 11, 60, 36, 59, 49, 59, 89, 48, 92, 80, 25, 68, 59, 68, 59, 76, 88, 32, 61, 63, 78, 77, 84, 65, 41, 78, 81, 16, 15, 83, 66, 62, 70, 40, 26, 15, 15, 47, 45, 37, 95, 65, 45, 78, 69, 88, 81, 47, 30, 39, 22, 25, 53, 75, 82, 45, 76, 68, 30, 35, 13, 43, 43, 39, 29, 39, 36, 7, 25, 66, 80, 47, 57, 48, 50, 40, 22, 72, 26, 27, 36, 41, 86, 8, 78, 70, 37, 36, 74, 37, 81, 89, 16, 29, 87, 55, 41, 18, 54, 10, 48, 24, 87, 85, 21, 66, 73, 86, 66, 34, 85, 85, 89, 68, 79, 67, 19, 7, 76, 57, 6, 20, 83, 73, 53, 37, 35, 50, 47, 47, 75, 38, 39, 85, 54, 5, 79, 43, 67, 58, 54, 41, 32, 34, 97, 63, 34, 77, 84, 31, 46, 90, 44, 72, 84, 69, 13, 71, 59, 39, 74, 52, 9, 24, 81, 39, 19, 55, 72, 54, 55, 46, 44, 84, 76, 9, 65, 90, 80, 50, 6, 59, 54, 81, 58, 69, 19, 8, 8, 47
              |39, 63, 46, 56, 38, 74, 28, 48, 16, 14, 77, 49, 39, 30, 61, 80, 57, 65, 51, 71, 85, 49, 57, 19, 29, 59, 88, 77, 19, 66, 59, 42, 31, 82, 14, 58, 50, 39, 42, 4, 15, 54, 66, 60, 58, 52, 27, 55, 55, 73, 35, 26, 55, 19, 38, 48, 15, 14, 49, 68, 59, 26, 56, 8, 13, 18, 22, 68, 51, 52, 35, 84, 30, 44, 34, 74, 40, 63, 54, 28, 47, 43, 75, 56, 47, 55, 21, 68, 34, 42, 30, 67, 33, 93, 21, 1, 45, 72, 29, 76, 46, 72, 83, 57, 39, 64, 29, 47, 61, 85, 65, 23, 41, 35, 84, 31, 29, 36, 72, 40, 55, 21, 29, 28, 15, 24, 26, 32, 74, 74, 20, 20, 22, 58, 26, 16, 19, 61, 76, 26, 4, 13, 32, 78, 82, 68, 48, 57, 34, 88, 61, 2, 69, 29, 29, 32, 68, 34, 71, 58, 58, 38, 30, 60, 24, 30, 15, 63, 45, 41, 64, 46, 22, 26, 62, 25, 77, 61, 71, 7, 69, 44, 66, 70, 81, 62, 48, 43, 46, 39, 29, 59, 25, 63, 57, 16, 33, 42, 22, 26, 19, 47, 58, 71, 26, 61, 22, 47, 10, 61, 96, 63, 45, 30, 69, 63, 10, 63, 4, 72, 60, 52, 47, 31, 56, 28, 55, 63, 25, 12, 57, 80, 28, 15, 13, 32, 38, 18, 55, 44, 13, 73, 28, 23, 23, 65, 19, 28, 18, 35, 17, 51, 71, 57, 38, 25, 31, 21, 28, 51, 46, 28, 27, 29, 34, 9, 62, 62, 40, 40, 22, 10, 63, 60, 18, 72, 44, 19, 66, 40, 43, 21, 54, 64, 30, 64, 53, 28, 22, 98, 57, 8, 44, 19, 63, 45, 44, 56, 60, 20
              |56, 72, 23, 72, 44, 47, 61, 54, 54, 75, 13, 34, 41, 71, 13, 26, 13, 79, 39, 6, 18, 24, 14, 55, 42, 36, 20, 24, 57, 20, 12, 74, 38, 13, 66, 29, 59, 65, 47, 72, 67, 27, 23, 28, 34, 29, 45, 72, 80, 10, 67, 87, 15, 82, 32, 84, 61, 57, 61, 3, 65, 94, 47, 62, 62, 56, 49, 54, 20, 50, 77, 16, 76, 62, 40, 9, 34, 38, 18, 98, 59, 64, 43, 82, 74, 73, 71, 21, 36, 64, 100, 72, 57, 25, 91, 69, 64, 6, 57, 14, 42, 56, 28, 63, 39, 49, 61, 71, 42, 23, 51, 54, 65, 45, 14, 83, 87, 74, 62, 65, 19, 85, 49, 58, 58, 70, 94, 42, 23, 26, 89, 75, 88, 36, 44, 86, 82, 55, 37, 95, 74, 62, 58, 9, 30, 55, 43, 18, 36, 25, 71, 72, 83, 69, 90, 101, 50, 73, 11, 12, 60, 39, 77, 46, 94, 68, 85, 37, 26, 29, 27, 75, 60, 59, 11, 46, 11, 32, 65, 69, 48, 77, 22, 9, 12, 9, 54, 53, 26, 35, 42, 12, 86, 48, 52, 83, 37, 28, 69, 48, 88, 73, 54, 68, 96, 23, 49, 49, 66, 29, 30, 16, 71, 79, 20, 34, 77, 58, 71, 74, 59, 64, 73, 89, 54, 87, 23, 32, 92, 59, 41, 34, 77, 84, 57, 38, 63, 52, 81, 29, 83, 77, 43, 91, 50, 35, 78, 65, 82, 84, 54, 20, 71, 71, 108, 83, 42, 74, 97, 65, 27, 95, 66, 61, 74, 78, 26, 41, 86, 30, 69, 62, 31, 16, 85, 3, 39, 53, 40, 37, 84, 48, 78, 56, 94, 49, 39, 98, 92, 30, 37, 71, 34, 84, 25, 48, 45, 42, 32, 64
              |73, 81, 50, 99, 63, 48, 89, 68, 80, 98, 18, 51, 60, 99, 34, 21, 39, 87, 53, 30, 10, 51, 39, 82, 68, 46, 9, 23, 80, 31, 36, 102, 64, 15, 93, 56, 72, 82, 74, 96, 90, 55, 48, 54, 60, 57, 69, 99, 93, 22, 85, 114, 40, 105, 57, 99, 84, 81, 74, 31, 74, 120, 58, 88, 86, 83, 74, 78, 44, 77, 95, 25, 95, 90, 68, 29, 62, 46, 41, 123, 86, 91, 42, 95, 88, 85, 93, 45, 63, 79, 124, 79, 85, 3, 115, 94, 78, 23, 85, 19, 58, 59, 20, 90, 59, 55, 89, 85, 67, 11, 56, 81, 81, 73, 18, 103, 114, 92, 86, 92, 40, 108, 76, 85, 85, 98, 120, 65, 44, 46, 114, 102, 114, 62, 69, 111, 109, 63, 36, 120, 99, 88, 86, 18, 22, 59, 58, 46, 63, 10, 97, 97, 91, 97, 111, 125, 74, 91, 24, 40, 69, 59, 96, 72, 118, 87, 110, 62, 50, 54, 37, 90, 82, 79, 33, 70, 18, 42, 69, 95, 72, 93, 47, 33, 23, 37, 68, 81, 49, 57, 66, 40, 113, 55, 78, 107, 62, 54, 96, 71, 113, 100, 63, 73, 121, 49, 73, 63, 89, 40, 2, 33, 99, 106, 28, 59, 103, 84, 97, 79, 85, 91, 100, 110, 81, 108, 41, 41, 115, 85, 52, 30, 105, 109, 82, 63, 80, 77, 94, 56, 108, 82, 67, 117, 77, 42, 105, 85, 105, 102, 80, 48, 76, 81, 133, 104, 65, 101, 121, 78, 55, 121, 86, 89, 102, 103, 38, 66, 104, 56, 96, 86, 40, 35, 111, 25, 57, 80, 64, 65, 100, 74, 91, 81, 117, 55, 66, 123, 116, 3, 49, 95, 62, 110, 50, 75, 61, 53, 43, 86
              |65, 88, 27, 43, 52, 72, 40, 67, 45, 70, 43, 49, 49, 49, 35, 56, 29, 94, 55, 26, 48, 17, 30, 41, 33, 57, 47, 53, 55, 46, 32, 49, 35, 41, 51, 2, 73, 73, 22, 63, 64, 8, 9, 2, 4, 8, 45, 43, 91, 40, 73, 68, 30, 77, 35, 91, 58, 51, 73, 27, 80, 80, 65, 52, 58, 42, 46, 24, 33, 21, 80, 34, 78, 35, 26, 27, 21, 60, 33, 84, 31, 37, 68, 92, 83, 86, 70, 12, 28, 73, 88, 89, 35, 53, 81, 59, 74, 36, 37, 44, 55, 79, 58, 33, 47, 69, 40, 81, 11, 53, 71, 38, 73, 25, 39, 83, 67, 79, 32, 39, 36, 80, 31, 37, 45, 50, 79, 45, 16, 16, 79, 56, 72, 6, 40, 73, 66, 73, 64, 84, 64, 48, 35, 39, 59, 76, 57, 14, 28, 55, 41, 61, 99, 47, 86, 91, 21, 76, 41, 23, 76, 47, 79, 16, 83, 71, 73, 7, 34, 30, 50, 83, 61, 61, 34, 45, 41, 54, 85, 56, 19, 84, 10, 23, 34, 23, 67, 27, 36, 42, 42, 21, 68, 68, 22, 76, 36, 29, 50, 49, 74, 45, 71, 87, 82, 7, 46, 62, 60, 51, 58, 40, 44, 57, 47, 5, 64, 28, 59, 92, 29, 35, 45, 87, 24, 84, 42, 55, 85, 47, 60, 63, 56, 75, 48, 37, 71, 43, 92, 19, 71, 95, 41, 76, 37, 59, 60, 68, 77, 85, 43, 20, 90, 85, 95, 80, 44, 55, 87, 78, 18, 79, 68, 40, 51, 68, 49, 11, 89, 28, 50, 56, 54, 39, 70, 33, 51, 41, 11, 19, 89, 42, 89, 25, 89, 69, 10, 84, 82, 58, 57, 64, 16, 68, 6, 21, 57, 60, 53, 63
              |52, 69, 18, 69, 39, 46, 56, 50, 49, 70, 16, 30, 36, 67, 10, 28, 9, 76, 36, 9, 22, 19, 9, 51, 37, 34, 24, 25, 52, 19, 8, 70, 33, 18, 61, 27, 56, 61, 43, 67, 62, 24, 22, 26, 32, 26, 40, 69, 76, 12, 63, 82, 10, 77, 27, 80, 56, 52, 57, 4, 61, 89, 44, 57, 57, 51, 44, 52, 16, 47, 72, 21, 71, 59, 36, 12, 30, 36, 13, 93, 55, 60, 42, 78, 70, 70, 66, 21, 31, 60, 95, 69, 53, 30, 86, 64, 60, 9, 53, 16, 38, 55, 30, 60, 34, 47, 57, 67, 40, 26, 48, 49, 61, 41, 19, 78, 82, 70, 60, 61, 15, 80, 44, 53, 53, 65, 89, 37, 24, 26, 84, 70, 83, 34, 39, 81, 77, 52, 37, 90, 69, 57, 53, 14, 31, 52, 39, 15, 31, 28, 68, 67, 80, 65, 85, 96, 48, 68, 12, 8, 57, 35, 72, 44, 89, 64, 80, 35, 22, 24, 25, 71, 55, 54, 8, 41, 15, 30, 63, 64, 47, 73, 22, 11, 17, 5, 50, 50, 22, 30, 37, 8, 82, 45, 49, 78, 32, 23, 64, 43, 83, 69, 51, 66, 91, 21, 44, 45, 61, 27, 34, 14, 67, 74, 19, 32, 72, 56, 66, 71, 57, 61, 69, 85, 51, 82, 20, 30, 87, 54, 39, 35, 72, 79, 52, 33, 59, 47, 77, 24, 78, 74, 38, 86, 45, 34, 73, 61, 77, 79, 49, 16, 68, 67, 103, 78, 37, 69, 92, 62, 23, 90, 61, 57, 70, 73, 24, 39, 81, 25, 64, 57, 29, 13, 80, 8, 35, 48, 38, 33, 80, 43, 74, 54, 89, 47, 36, 93, 87, 34, 35, 66, 30, 79, 23, 44, 41, 39, 30, 59
              |72, 96, 36, 30, 59, 83, 34, 75, 46, 70, 57, 59, 57, 40, 48, 70, 41, 101, 65, 40, 62, 27, 43, 39, 36, 68, 61, 67, 58, 59, 45, 37, 39, 55, 47, 15, 80, 78, 16, 62, 66, 18, 22, 16, 10, 17, 50, 30, 97, 54, 77, 61, 42, 76, 43, 96, 60, 52, 81, 41, 89, 74, 74, 51, 59, 40, 49, 13, 44, 8, 84, 48, 80, 24, 28, 41, 25, 72, 44, 79, 19, 26, 80, 98, 89, 93, 72, 25, 33, 79, 84, 98, 28, 67, 78, 57, 81, 50, 31, 58, 64, 89, 71, 19, 55, 80, 33, 87, 4, 67, 82, 35, 79, 23, 53, 85, 59, 83, 20, 28, 48, 79, 29, 32, 43, 43, 74, 51, 28, 27, 77, 50, 66, 8, 44, 69, 60, 83, 77, 81, 62, 45, 28, 53, 73, 86, 66, 27, 33, 69, 27, 59, 106, 39, 86, 87, 11, 80, 54, 36, 85, 55, 81, 3, 80, 75, 70, 9, 43, 38, 63, 89, 64, 65, 47, 49, 55, 66, 95, 53, 11, 89, 23, 37, 48, 37, 75, 18, 46, 50, 48, 34, 61, 78, 8, 74, 42, 37, 43, 54, 70, 33, 81, 97, 78, 21, 50, 71, 61, 63, 72, 53, 33, 49, 60, 12, 60, 14, 56, 101, 15, 22, 33, 88, 10, 85, 53, 67, 83, 46, 70, 76, 48, 72, 49, 43, 77, 44, 98, 26, 68, 104, 45, 70, 36, 70, 54, 72, 76, 88, 42, 31, 99, 92, 91, 81, 49, 49, 84, 85, 26, 73, 72, 33, 42, 66, 61, 6, 92, 35, 43, 57, 65, 51, 65, 47, 59, 40, 10, 21, 93, 44, 95, 12, 88, 80, 7, 79, 79, 72, 67, 64, 20, 62, 20, 13, 65, 70, 65, 66
              |25, 26, 41, 97, 25, 13, 73, 16, 52, 57, 42, 19, 25, 82, 35, 34, 39, 33, 13, 53, 48, 50, 38, 61, 49, 11, 54, 32, 43, 28, 37, 91, 43, 51, 68, 65, 19, 32, 70, 61, 50, 60, 65, 66, 69, 61, 38, 96, 38, 41, 36, 87, 38, 63, 37, 46, 47, 49, 21, 48, 19, 86, 6, 58, 49, 61, 43, 90, 35, 79, 45, 62, 48, 84, 56, 56, 54, 9, 35, 88, 83, 84, 16, 40, 35, 30, 49, 64, 48, 28, 86, 25, 73, 54, 77, 62, 26, 43, 70, 40, 17, 12, 35, 91, 26, 2, 74, 32, 77, 43, 4, 62, 30, 63, 57, 55, 89, 42, 98, 83, 31, 65, 62, 70, 60, 77, 87, 33, 69, 70, 75, 78, 83, 71, 43, 77, 81, 8, 21, 81, 65, 63, 73, 48, 34, 9, 14, 54, 48, 45, 99, 64, 37, 80, 65, 85, 87, 42, 38, 46, 14, 27, 48, 80, 79, 40, 74, 74, 34, 40, 21, 37, 41, 37, 37, 40, 44, 15, 18, 66, 86, 41, 64, 55, 58, 47, 16, 76, 31, 30, 38, 48, 86, 1, 83, 67, 40, 40, 75, 37, 80, 93, 9, 21, 85, 62, 42, 15, 52, 18, 55, 31, 90, 86, 29, 72, 72, 91, 65, 27, 90, 89, 93, 63, 84, 62, 26, 15, 73, 58, 7, 26, 84, 71, 53, 40, 31, 51, 39, 52, 73, 30, 41, 84, 56, 13, 79, 39, 64, 53, 55, 47, 24, 27, 94, 59, 36, 78, 81, 24, 51, 89, 41, 74, 86, 67, 21, 77, 53, 43, 75, 52, 16, 31, 80, 47, 21, 57, 78, 59, 49, 47, 36, 89, 72, 2, 71, 88, 77, 58, 11, 57, 59, 81, 65, 73, 18, 8, 15, 45
              |72, 96, 37, 28, 60, 85, 32, 76, 45, 70, 59, 60, 57, 38, 50, 71, 43, 102, 66, 42, 64, 29, 44, 38, 36, 69, 63, 69, 58, 60, 46, 35, 40, 57, 45, 17, 81, 78, 15, 61, 65, 20, 25, 18, 12, 18, 50, 28, 97, 55, 77, 59, 43, 75, 43, 96, 59, 52, 81, 43, 89, 73, 75, 50, 59, 39, 49, 13, 45, 6, 84, 50, 80, 22, 28, 43, 26, 73, 46, 78, 17, 24, 82, 99, 89, 93, 72, 28, 33, 80, 83, 98, 26, 69, 76, 56, 81, 52, 29, 59, 64, 90, 73, 17, 56, 81, 31, 87, 6, 69, 83, 34, 79, 23, 55, 85, 57, 82, 19, 26, 49, 78, 28, 30, 42, 41, 72, 52, 30, 29, 75, 48, 65, 10, 44, 68, 59, 84, 79, 80, 61, 44, 27, 55, 75, 87, 67, 29, 33, 71, 25, 58, 107, 38, 86, 86, 11, 80, 56, 37, 86, 55, 81, 3, 79, 75, 68, 11, 44, 39, 64, 89, 64, 65, 49, 49, 57, 67, 96, 52, 12, 89, 25, 39, 50, 39, 76, 16, 47, 50, 48, 36, 60, 79, 6, 73, 42, 38, 42, 54, 68, 31, 81, 98, 76, 23, 50, 71, 60, 64, 74, 54, 30, 47, 62, 14, 59, 13, 55, 102, 13, 20, 31, 87, 8, 84, 55, 68, 82, 45, 71, 77, 46, 71, 48, 43, 77, 44, 98, 27, 66, 105, 45, 69, 36, 72, 52, 72, 75, 88, 42, 32, 100, 93, 89, 80, 50, 47, 83, 86, 27, 71, 71, 31, 40, 65, 62, 8, 91, 36, 42, 56, 67, 53, 63, 49, 60, 40, 12, 22, 92, 44, 95, 11, 87, 81, 8, 78, 77, 74, 68, 64, 21, 60, 22, 12, 66, 71, 66, 65
              |28, 53, 19, 57, 17, 51, 32, 33, 13, 34, 49, 24, 16, 41, 33, 53, 29, 58, 28, 44, 57, 24, 28, 20, 9, 35, 60, 50, 16, 38, 31, 50, 5, 54, 29, 37, 38, 34, 32, 30, 26, 32, 43, 39, 40, 32, 5, 56, 52, 45, 33, 50, 27, 40, 10, 52, 20, 15, 37, 40, 46, 54, 36, 22, 21, 20, 8, 57, 23, 43, 41, 57, 38, 44, 17, 47, 19, 39, 25, 57, 44, 44, 51, 54, 45, 49, 31, 44, 12, 35, 58, 56, 33, 64, 49, 28, 37, 44, 29, 48, 24, 53, 55, 53, 15, 43, 33, 43, 46, 57, 45, 21, 35, 24, 56, 44, 51, 39, 63, 43, 26, 43, 21, 29, 20, 37, 54, 8, 50, 51, 48, 39, 48, 40, 2, 45, 44, 43, 51, 53, 33, 24, 32, 50, 55, 49, 27, 32, 12, 59, 60, 30, 63, 39, 49, 59, 55, 37, 43, 31, 44, 14, 39, 47, 52, 32, 43, 45, 16, 13, 37, 45, 21, 22, 34, 5, 49, 35, 55, 30, 55, 45, 43, 44, 54, 34, 33, 37, 18, 12, 4, 32, 49, 42, 47, 41, 4, 14, 35, 9, 47, 52, 41, 56, 55, 38, 7, 30, 24, 35, 68, 34, 49, 46, 41, 44, 37, 55, 30, 60, 53, 50, 52, 49, 48, 46, 28, 37, 50, 19, 34, 53, 44, 43, 16, 4, 32, 12, 53, 21, 42, 62, 1, 50, 15, 40, 41, 29, 41, 46, 15, 25, 58, 49, 66, 42, 6, 39, 55, 42, 22, 55, 28, 33, 45, 37, 35, 46, 49, 13, 35, 20, 37, 32, 45, 44, 20, 16, 49, 23, 49, 8, 51, 54, 53, 43, 38, 57, 50, 69, 33, 29, 25, 45, 41, 35, 24, 34, 34, 24
              |65, 89, 31, 31, 53, 78, 29, 69, 39, 64, 54, 53, 50, 37, 43, 66, 36, 95, 59, 38, 59, 22, 38, 33, 29, 62, 59, 63, 52, 54, 40, 36, 33, 53, 41, 13, 74, 72, 11, 56, 59, 14, 21, 14, 9, 12, 43, 31, 90, 50, 71, 57, 37, 70, 36, 89, 53, 46, 74, 38, 82, 70, 68, 45, 53, 34, 43, 19, 38, 9, 77, 47, 74, 23, 21, 39, 19, 66, 39, 74, 18, 25, 75, 92, 82, 86, 66, 25, 26, 73, 79, 91, 23, 65, 72, 51, 74, 47, 26, 54, 57, 83, 67, 22, 49, 74, 29, 80, 9, 64, 76, 29, 73, 17, 51, 79, 55, 76, 26, 26, 43, 73, 23, 27, 37, 39, 69, 45, 29, 28, 71, 46, 62, 7, 38, 64, 56, 77, 72, 76, 56, 39, 24, 50, 69, 80, 60, 23, 26, 66, 30, 53, 100, 36, 80, 82, 17, 74, 50, 31, 78, 48, 75, 9, 75, 68, 64, 11, 37, 32, 57, 82, 57, 59, 43, 42, 52, 60, 89, 48, 18, 82, 22, 35, 46, 33, 69, 15, 40, 43, 41, 30, 57, 72, 12, 68, 35, 31, 39, 47, 65, 33, 74, 91, 73, 19, 43, 64, 54, 58, 70, 48, 32, 46, 56, 13, 55, 19, 50, 95, 19, 23, 33, 81, 13, 78, 48, 61, 77, 40, 64, 71, 44, 67, 42, 36, 70, 38, 91, 20, 62, 98, 38, 66, 30, 65, 50, 66, 70, 81, 36, 26, 93, 86, 86, 74, 43, 45, 78, 79, 20, 68, 65, 29, 39, 60, 56, 10, 85, 29, 39, 50, 60, 46, 60, 44, 53, 34, 14, 15, 86, 38, 88, 18, 82, 74, 2, 74, 73, 70, 61, 58, 13, 57, 19, 9, 59, 64, 59, 59
              |55, 69, 27, 79, 44, 42, 66, 52, 57, 77, 6, 33, 41, 77, 13, 19, 16, 76, 37, 13, 13, 29, 16, 60, 46, 32, 16, 17, 59, 16, 13, 81, 42, 10, 70, 36, 57, 65, 53, 74, 69, 34, 31, 36, 41, 36, 47, 79, 78, 3, 66, 91, 18, 84, 35, 83, 63, 60, 59, 10, 61, 98, 44, 66, 64, 60, 52, 61, 22, 57, 77, 19, 76, 69, 46, 14, 40, 34, 19, 101, 65, 70, 37, 80, 72, 71, 72, 28, 40, 63, 103, 68, 63, 20, 94, 72, 62, 1, 63, 6, 41, 51, 21, 70, 39, 45, 67, 69, 49, 16, 46, 59, 64, 51, 14, 83, 91, 74, 69, 71, 19, 87, 54, 63, 62, 75, 98, 44, 30, 32, 92, 79, 92, 43, 47, 89, 87, 51, 31, 98, 77, 66, 64, 5, 22, 50, 41, 25, 40, 18, 78, 75, 80, 75, 91, 104, 57, 72, 5, 18, 56, 39, 77, 54, 96, 68, 88, 44, 28, 32, 23, 74, 61, 60, 11, 48, 4, 28, 60, 73, 56, 76, 30, 16, 15, 15, 52, 60, 27, 36, 44, 18, 91, 43, 59, 86, 40, 31, 74, 50, 91, 79, 50, 64, 99, 30, 51, 47, 68, 25, 24, 13, 77, 84, 14, 41, 81, 66, 74, 70, 66, 71, 79, 90, 61, 88, 22, 28, 94, 62, 38, 28, 82, 87, 60, 41, 63, 55, 79, 34, 86, 73, 45, 94, 54, 31, 82, 66, 84, 84, 58, 26, 67, 68, 111, 84, 44, 79, 99, 63, 33, 99, 66, 67, 80, 81, 22, 48, 86, 34, 74, 65, 27, 15, 89, 5, 38, 57, 47, 43, 83, 52, 76, 63, 96, 45, 46, 101, 94, 25, 34, 73, 40, 88, 32, 54, 44, 39, 28, 65
              |42, 63, 55, 63, 43, 78, 36, 51, 25, 10, 85, 55, 44, 37, 69, 87, 65, 65, 56, 80, 93, 58, 65, 28, 38, 65, 96, 84, 24, 73, 67, 48, 40, 90, 22, 67, 52, 39, 51, 6, 16, 63, 75, 69, 67, 61, 34, 62, 53, 81, 35, 27, 63, 11, 46, 45, 19, 21, 50, 76, 60, 20, 59, 17, 17, 27, 29, 77, 59, 61, 32, 92, 27, 52, 43, 83, 49, 68, 62, 22, 55, 51, 80, 53, 46, 55, 19, 77, 43, 43, 22, 67, 42, 100, 13, 10, 46, 80, 37, 83, 51, 75, 89, 65, 45, 67, 37, 47, 70, 93, 69, 32, 41, 44, 92, 26, 30, 34, 80, 48, 62, 13, 38, 36, 24, 30, 21, 38, 83, 83, 11, 25, 19, 67, 34, 11, 20, 64, 82, 17, 5, 22, 41, 86, 89, 71, 53, 66, 43, 95, 69, 8, 68, 36, 21, 23, 77, 32, 78, 67, 60, 45, 27, 69, 16, 29, 8, 72, 52, 49, 70, 45, 25, 29, 70, 33, 85, 67, 73, 14, 78, 41, 75, 79, 90, 70, 51, 51, 54, 46, 37, 68, 25, 67, 65, 7, 41, 50, 29, 32, 14, 54, 61, 72, 20, 70, 30, 51, 14, 67, 104, 70, 51, 34, 76, 72, 11, 71, 11, 72, 68, 60, 54, 24, 64, 21, 62, 69, 16, 22, 61, 86, 33, 6, 21, 40, 39, 27, 53, 53, 8, 74, 35, 19, 32, 71, 23, 29, 11, 31, 26, 60, 72, 57, 30, 18, 38, 26, 19, 52, 55, 24, 27, 37, 40, 2, 68, 71, 35, 49, 29, 16, 69, 68, 17, 81, 49, 28, 75, 49, 39, 30, 52, 73, 21, 67, 62, 22, 14, 105, 62, 9, 53, 19, 72, 54, 48, 60, 66, 21
              |52, 74, 62, 59, 53, 89, 35, 62, 31, 21, 93, 65, 54, 33, 77, 96, 72, 75, 66, 86, 101, 63, 72, 31, 43, 75, 104, 93, 34, 82, 75, 43, 47, 98, 22, 71, 63, 50, 52, 16, 27, 67, 79, 73, 70, 65, 43, 58, 63, 89, 46, 18, 71, 20, 54, 55, 29, 30, 61, 83, 71, 10, 70, 23, 28, 30, 37, 77, 67, 61, 43, 99, 37, 50, 47, 89, 53, 78, 69, 13, 54, 48, 90, 64, 57, 66, 30, 81, 49, 54, 16, 78, 41, 108, 10, 16, 57, 88, 37, 92, 61, 86, 98, 63, 55, 78, 36, 58, 72, 101, 80, 35, 52, 47, 99, 36, 21, 44, 79, 45, 70, 21, 41, 36, 28, 27, 10, 48, 87, 87, 10, 20, 9, 69, 42, 1, 12, 75, 92, 13, 12, 25, 40, 93, 98, 82, 63, 72, 49, 103, 66, 14, 79, 32, 28, 19, 78, 43, 87, 73, 71, 54, 38, 70, 12, 40, 4, 74, 60, 57, 79, 55, 36, 40, 78, 41, 93, 76, 84, 16, 79, 52, 80, 85, 96, 77, 62, 51, 62, 55, 45, 74, 16, 77, 65, 14, 48, 57, 26, 42, 3, 50, 72, 83, 11, 74, 38, 62, 24, 77, 112, 78, 48, 28, 85, 75, 9, 70, 14, 83, 67, 57, 50, 31, 64, 29, 71, 79, 19, 26, 72, 95, 27, 9, 28, 48, 50, 33, 64, 59, 3, 84, 43, 8, 36, 81, 17, 40, 19, 40, 31, 66, 83, 68, 23, 27, 46, 21, 16, 63, 60, 13, 38, 36, 35, 9, 78, 73, 44, 55, 26, 25, 78, 76, 7, 88, 59, 32, 77, 53, 49, 37, 63, 72, 25, 78, 65, 13, 11, 113, 72, 19, 57, 10, 76, 55, 59, 71, 76, 32
              |86, 111, 54, 17, 74, 101, 37, 91, 56, 78, 76, 76, 72, 39, 66, 88, 59, 116, 82, 58, 80, 45, 61, 47, 49, 85, 79, 85, 70, 77, 63, 31, 54, 73, 51, 34, 95, 91, 26, 69, 75, 37, 40, 34, 28, 35, 63, 18, 110, 72, 90, 60, 60, 83, 58, 108, 70, 63, 95, 60, 104, 75, 91, 59, 69, 48, 62, 12, 61, 16, 95, 64, 91, 21, 41, 59, 41, 89, 62, 80, 17, 23, 98, 112, 102, 107, 82, 43, 47, 93, 86, 113, 31, 85, 81, 64, 95, 69, 36, 76, 80, 107, 90, 8, 71, 97, 36, 100, 21, 85, 99, 43, 93, 34, 70, 95, 57, 94, 8, 26, 66, 86, 39, 37, 51, 44, 74, 66, 45, 43, 81, 51, 67, 26, 57, 72, 61, 99, 95, 84, 68, 52, 32, 71, 91, 103, 83, 45, 47, 87, 11, 65, 121, 39, 94, 90, 15, 92, 73, 54, 101, 70, 92, 16, 83, 87, 73, 26, 60, 55, 81, 102, 75, 78, 66, 62, 73, 83, 111, 58, 17, 101, 41, 55, 65, 55, 91, 22, 63, 65, 62, 53, 60, 95, 12, 80, 57, 54, 45, 67, 72, 25, 97, 113, 79, 39, 62, 86, 70, 81, 90, 71, 26, 47, 78, 29, 64, 4, 62, 117, 5, 14, 25, 96, 11, 92, 71, 85, 88, 54, 87, 94, 46, 77, 58, 57, 90, 55, 111, 43, 71, 120, 59, 71, 47, 88, 55, 84, 83, 98, 52, 49, 115, 107, 91, 89, 64, 50, 87, 100, 43, 72, 83, 36, 38, 71, 79, 22, 102, 52, 45, 66, 83, 69, 66, 65, 75, 50, 24, 36, 104, 56, 108, 7, 94, 97, 25, 80, 82, 89, 84, 72, 36, 63, 38, 23, 81, 87, 82, 77
              |29, 4, 65, 113, 40, 37, 85, 24, 62, 55, 72, 43, 43, 93, 63, 63, 66, 3, 37, 82, 78, 74, 65, 72, 66, 40, 84, 62, 49, 57, 65, 103, 61, 81, 76, 89, 19, 27, 88, 62, 50, 84, 91, 91, 93, 84, 52, 112, 15, 71, 30, 91, 65, 57, 57, 26, 51, 57, 19, 77, 12, 84, 29, 65, 53, 72, 54, 112, 60, 99, 34, 91, 39, 100, 74, 85, 75, 39, 61, 84, 100, 99, 43, 16, 19, 10, 46, 91, 67, 23, 80, 6, 88, 84, 72, 65, 21, 73, 84, 70, 37, 27, 64, 110, 44, 29, 87, 18, 100, 73, 28, 75, 25, 81, 87, 43, 94, 32, 119, 98, 59, 58, 77, 83, 70, 87, 85, 49, 96, 98, 71, 85, 84, 94, 57, 76, 84, 22, 49, 75, 66, 72, 87, 78, 63, 26, 34, 80, 67, 74, 116, 67, 7, 91, 55, 77, 110, 33, 68, 73, 16, 45, 39, 102, 74, 36, 73, 98, 58, 62, 50, 21, 44, 40, 65, 53, 74, 44, 17, 72, 110, 25, 91, 84, 87, 75, 24, 94, 55, 50, 53, 75, 90, 30, 103, 63, 58, 63, 85, 48, 79, 107, 22, 14, 82, 87, 54, 29, 55, 48, 85, 60, 104, 94, 59, 97, 74, 111, 70, 9, 110, 107, 107, 52, 104, 52, 53, 45, 65, 67, 35, 55, 92, 68, 62, 57, 27, 63, 16, 74, 73, 9, 56, 84, 70, 43, 84, 37, 58, 40, 67, 72, 11, 8, 87, 51, 51, 85, 74, 15, 74, 89, 39, 87, 97, 67, 51, 100, 37, 64, 85, 56, 46, 60, 82, 76, 41, 69, 103, 79, 31, 60, 15, 111, 62, 29, 93, 84, 72, 87, 39, 58, 80, 83, 90, 92, 35, 34, 45, 46
              |65, 84, 26, 59, 51, 63, 53, 65, 53, 77, 30, 45, 49, 63, 26, 43, 22, 91, 51, 11, 33, 20, 23, 51, 40, 50, 32, 41, 60, 36, 24, 64, 39, 26, 62, 15, 70, 73, 36, 71, 70, 16, 7, 14, 20, 18, 48, 59, 90, 27, 74, 81, 24, 84, 36, 92, 64, 58, 72, 14, 77, 91, 60, 61, 64, 52, 51, 37, 28, 36, 83, 19, 81, 51, 36, 12, 29, 53, 27, 95, 46, 52, 59, 92, 83, 84, 75, 4, 34, 73, 98, 85, 48, 38, 90, 68, 74, 23, 50, 30, 52, 71, 45, 49, 47, 63, 53, 80, 26, 39, 65, 49, 74, 37, 23, 88, 80, 81, 46, 54, 30, 87, 43, 50, 55, 63, 90, 47, 8, 9, 89, 69, 84, 22, 45, 83, 78, 68, 54, 94, 73, 58, 49, 25, 47, 69, 54, 11, 34, 41, 56, 70, 96, 61, 92, 100, 34, 79, 28, 16, 72, 46, 82, 31, 93, 74, 83, 21, 32, 31, 42, 84, 64, 64, 25, 49, 27, 47, 79, 66, 32, 85, 6, 8, 18, 14, 65, 42, 34, 41, 45, 14, 81, 62, 37, 84, 39, 30, 62, 52, 85, 61, 67, 82, 93, 9, 51, 60, 67, 44, 43, 30, 60, 71, 36, 18, 74, 43, 68, 87, 44, 51, 61, 93, 40, 90, 35, 47, 93, 56, 55, 51, 69, 84, 56, 40, 71, 51, 91, 24, 81, 90, 45, 87, 46, 50, 72, 71, 84, 89, 51, 19, 85, 82, 106, 86, 46, 68, 96, 76, 23, 91, 71, 53, 65, 77, 41, 25, 92, 30, 62, 63, 46, 30, 81, 19, 49, 50, 23, 30, 91, 48, 88, 40, 96, 63, 26, 95, 91, 42, 51, 72, 26, 79, 9, 36, 55, 55, 46, 68
              |23, 47, 17, 65, 10, 42, 41, 26, 22, 38, 43, 15, 8, 50, 27, 45, 24, 52, 19, 41, 50, 25, 24, 29, 17, 26, 55, 42, 19, 31, 26, 58, 11, 49, 38, 40, 31, 31, 39, 36, 30, 35, 44, 41, 43, 34, 9, 64, 48, 39, 31, 58, 22, 45, 7, 50, 24, 22, 32, 37, 40, 61, 27, 30, 25, 29, 14, 62, 17, 49, 40, 53, 39, 52, 24, 44, 24, 30, 20, 64, 51, 52, 42, 50, 41, 44, 34, 44, 17, 31, 64, 49, 41, 58, 55, 35, 32, 39, 38, 41, 16, 44, 47, 60, 7, 34, 42, 39, 50, 50, 37, 30, 31, 31, 52, 45, 59, 38, 69, 51, 20, 48, 30, 38, 29, 46, 61, 4, 50, 51, 54, 48, 56, 44, 11, 52, 52, 35, 42, 59, 39, 33, 41, 44, 47, 40, 19, 32, 17, 52, 67, 38, 57, 48, 52, 65, 60, 36, 36, 28, 36, 6, 40, 52, 58, 31, 50, 48, 11, 12, 28, 41, 22, 21, 28, 10, 43, 26, 48, 38, 59, 43, 44, 42, 50, 32, 26, 44, 12, 4, 6, 30, 58, 33, 53, 47, 8, 13, 44, 11, 54, 60, 33, 49, 62, 39, 13, 22, 29, 26, 62, 28, 58, 55, 34, 47, 45, 61, 38, 52, 60, 58, 60, 52, 54, 49, 20, 29, 55, 28, 25, 45, 53, 49, 24, 8, 29, 20, 49, 24, 49, 55, 9, 58, 24, 31, 49, 28, 45, 47, 24, 24, 51, 43, 73, 45, 5, 48, 61, 36, 24, 63, 28, 42, 54, 43, 26, 50, 49, 14, 44, 26, 28, 25, 53, 40, 12, 25, 53, 28, 48, 16, 47, 60, 57, 34, 42, 64, 56, 63, 24, 35, 29, 53, 42, 42, 16, 25, 25, 26
              |35, 58, 4, 59, 22, 46, 39, 37, 28, 49, 34, 20, 19, 50, 18, 41, 13, 64, 26, 29, 42, 13, 13, 31, 17, 30, 45, 37, 31, 26, 16, 56, 12, 39, 41, 28, 43, 44, 32, 45, 41, 22, 31, 29, 31, 23, 19, 59, 61, 30, 44, 62, 12, 55, 6, 63, 35, 30, 43, 25, 50, 68, 35, 36, 36, 31, 23, 52, 9, 40, 53, 42, 51, 47, 19, 32, 16, 34, 11, 71, 45, 48, 44, 63, 54, 56, 46, 31, 12, 44, 73, 59, 38, 50, 64, 42, 45, 29, 36, 33, 25, 51, 43, 53, 17, 41, 40, 51, 39, 43, 43, 30, 44, 26, 41, 58, 63, 51, 59, 47, 13, 59, 27, 36, 33, 47, 68, 17, 37, 38, 63, 51, 62, 33, 17, 59, 57, 44, 42, 68, 48, 36, 38, 35, 43, 47, 28, 19, 12, 46, 61, 45, 69, 48, 64, 74, 49, 49, 28, 16, 46, 17, 52, 42, 67, 44, 58, 37, 4, 2, 27, 54, 35, 34, 19, 20, 34, 28, 56, 43, 48, 56, 31, 29, 38, 19, 37, 38, 8, 12, 16, 17, 62, 40, 44, 57, 11, 2, 46, 23, 62, 56, 42, 58, 69, 26, 22, 32, 39, 26, 54, 21, 54, 56, 29, 35, 51, 52, 45, 62, 51, 52, 56, 64, 45, 61, 17, 30, 65, 33, 32, 43, 54, 58, 30, 12, 42, 25, 62, 13, 57, 65, 16, 65, 25, 33, 53, 41, 56, 59, 28, 11, 60, 55, 81, 57, 16, 50, 70, 48, 13, 69, 41, 40, 54, 52, 25, 39, 62, 5, 46, 36, 29, 19, 59, 29, 21, 28, 41, 20, 61, 22, 59, 51, 68, 41, 32, 71, 65, 55, 29, 44, 20, 58, 29, 35, 27, 31, 27, 38
              |72, 98, 53, 16, 64, 97, 15, 79, 38, 54, 83, 70, 63, 10, 70, 93, 63, 101, 75, 69, 90, 48, 64, 28, 39, 81, 91, 90, 52, 79, 67, 3, 45, 84, 26, 46, 83, 75, 25, 44, 54, 45, 55, 48, 42, 43, 50, 16, 92, 79, 72, 29, 63, 58, 52, 88, 50, 44, 82, 69, 92, 45, 83, 37, 49, 29, 47, 39, 61, 27, 74, 80, 69, 11, 34, 72, 38, 85, 63, 50, 16, 9, 97, 94, 85, 92, 60, 58, 41, 77, 56, 101, 15, 96, 53, 39, 80, 77, 17, 83, 71, 100, 95, 23, 62, 90, 14, 84, 40, 93, 92, 26, 76, 27, 83, 71, 26, 74, 39, 7, 66, 60, 26, 18, 30, 16, 44, 55, 62, 61, 52, 22, 37, 41, 45, 43, 31, 90, 95, 55, 42, 29, 15, 81, 96, 96, 74, 53, 41, 96, 23, 40, 106, 11, 68, 61, 41, 72, 78, 60, 90, 61, 70, 36, 54, 67, 45, 44, 57, 51, 80, 84, 57, 60, 70, 48, 82, 80, 102, 33, 43, 82, 56, 67, 79, 63, 79, 19, 60, 58, 50, 59, 30, 89, 29, 53, 48, 51, 18, 53, 43, 8, 87, 103, 49, 51, 47, 76, 48, 79, 101, 73, 5, 16, 81, 46, 36, 31, 36, 105, 28, 16, 8, 70, 27, 67, 70, 82, 61, 34, 81, 96, 16, 49, 39, 48, 73, 38, 93, 44, 43, 107, 47, 41, 32, 85, 26, 65, 57, 75, 34, 52, 104, 92, 61, 64, 52, 21, 58, 86, 45, 42, 64, 14, 8, 45, 78, 41, 80, 48, 18, 45, 81, 71, 36, 75, 67, 32, 45, 35, 83, 41, 91, 34, 67, 90, 36, 50, 54, 101, 79, 48, 37, 33, 52, 25, 71, 80, 79, 57
              |31, 10, 68, 113, 43, 44, 86, 28, 63, 52, 78, 48, 46, 92, 68, 70, 71, 4, 42, 87, 84, 77, 70, 73, 67, 46, 90, 68, 49, 63, 70, 103, 63, 87, 75, 93, 22, 26, 90, 60, 48, 87, 95, 94, 96, 87, 53, 113, 10, 76, 29, 89, 69, 54, 60, 20, 50, 57, 21, 82, 17, 81, 34, 64, 52, 72, 55, 115, 65, 101, 30, 97, 36, 101, 75, 90, 77, 45, 66, 80, 101, 100, 50, 10, 16, 9, 43, 95, 69, 23, 76, 13, 89, 90, 68, 64, 21, 78, 85, 76, 40, 34, 71, 111, 47, 35, 87, 17, 103, 80, 35, 76, 24, 82, 92, 39, 92, 29, 121, 98, 63, 54, 78, 84, 70, 86, 82, 51, 100, 102, 67, 84, 82, 97, 59, 73, 82, 28, 56, 71, 64, 72, 88, 83, 69, 33, 39, 83, 69, 81, 117, 65, 6, 90, 50, 73, 113, 30, 73, 77, 22, 48, 36, 105, 70, 34, 70, 101, 61, 65, 56, 18, 43, 40, 70, 54, 80, 50, 25, 70, 112, 21, 95, 89, 93, 79, 28, 95, 59, 53, 55, 79, 88, 36, 105, 60, 60, 66, 84, 50, 76, 107, 28, 21, 79, 91, 54, 33, 54, 53, 91, 66, 104, 93, 65, 100, 72, 113, 68, 16, 111, 108, 107, 47, 106, 48, 58, 51, 61, 67, 40, 62, 91, 65, 62, 59, 27, 63, 10, 77, 70, 15, 57, 81, 71, 49, 83, 35, 55, 35, 67, 76, 18, 10, 83, 47, 53, 84, 70, 17, 77, 86, 37, 87, 96, 65, 56, 103, 32, 67, 84, 56, 52, 65, 79, 82, 44, 69, 106, 81, 26, 61, 10, 113, 57, 35, 95, 80, 68, 94, 44, 56, 82, 81, 94, 94, 38, 39, 50, 44
              |76, 101, 46, 15, 65, 93, 26, 81, 45, 68, 71, 67, 63, 30, 60, 82, 53, 106, 73, 54, 76, 38, 54, 36, 39, 77, 76, 80, 59, 71, 57, 24, 44, 70, 41, 29, 86, 81, 16, 58, 64, 31, 37, 31, 25, 29, 53, 15, 100, 67, 79, 50, 53, 73, 49, 97, 60, 52, 86, 55, 94, 65, 82, 48, 59, 37, 51, 17, 54, 8, 84, 63, 80, 11, 31, 56, 32, 81, 55, 70, 7, 14, 91, 101, 92, 97, 71, 41, 38, 83, 76, 104, 21, 82, 71, 53, 85, 64, 25, 71, 70, 98, 84, 5, 62, 88, 25, 90, 19, 81, 90, 32, 82, 24, 67, 84, 48, 84, 18, 16, 59, 75, 28, 26, 40, 34, 65, 56, 43, 42, 70, 41, 57, 23, 47, 62, 51, 90, 88, 74, 57, 41, 22, 67, 86, 95, 73, 40, 38, 83, 13, 54, 111, 29, 83, 80, 19, 81, 67, 48, 91, 61, 81, 14, 73, 76, 63, 24, 52, 46, 73, 91, 65, 67, 60, 52, 69, 75, 102, 48, 21, 91, 38, 52, 63, 50, 81, 12, 55, 56, 52, 47, 51, 87, 7, 69, 47, 46, 35, 57, 62, 18, 88, 104, 69, 35, 52, 77, 59, 73, 87, 64, 19, 38, 72, 27, 53, 9, 51, 107, 6, 7, 18, 85, 5, 82, 64, 77, 78, 43, 79, 88, 37, 66, 47, 48, 80, 44, 100, 35, 61, 110, 49, 61, 36, 80, 45, 73, 72, 87, 41, 42, 106, 97, 82, 78, 54, 40, 77, 90, 36, 63, 72, 25, 30, 61, 71, 21, 91, 43, 35, 55, 76, 63, 56, 61, 66, 39, 24, 27, 93, 46, 98, 11, 83, 88, 19, 70, 72, 86, 76, 61, 28, 53, 35, 13, 71, 78, 74, 66
              |86, 111, 56, 12, 75, 103, 34, 91, 55, 76, 79, 77, 73, 35, 69, 91, 62, 116, 83, 62, 84, 47, 63, 45, 49, 87, 83, 88, 69, 80, 66, 26, 54, 77, 48, 37, 96, 91, 26, 66, 73, 40, 44, 38, 32, 38, 63, 13, 109, 75, 89, 55, 63, 81, 59, 107, 69, 61, 96, 63, 104, 71, 92, 57, 68, 46, 61, 17, 63, 17, 93, 69, 89, 18, 41, 63, 42, 91, 65, 76, 15, 19, 101, 111, 102, 107, 80, 47, 48, 93, 82, 114, 29, 89, 78, 61, 95, 72, 34, 79, 80, 108, 93, 5, 72, 98, 33, 100, 25, 89, 100, 41, 92, 34, 74, 93, 52, 93, 13, 22, 68, 83, 38, 34, 49, 40, 70, 66, 49, 48, 77, 47, 63, 30, 57, 69, 57, 100, 98, 81, 65, 49, 30, 75, 94, 104, 83, 49, 48, 91, 6, 62, 121, 35, 91, 86, 21, 91, 76, 57, 101, 71, 90, 20, 80, 85, 70, 30, 62, 56, 83, 101, 74, 77, 69, 62, 77, 85, 112, 56, 23, 100, 45, 59, 69, 59, 91, 21, 65, 66, 62, 56, 56, 97, 14, 77, 57, 55, 42, 66, 68, 20, 98, 114, 75, 43, 62, 87, 68, 83, 94, 73, 21, 42, 81, 33, 60, 9, 59, 117, 7, 10, 20, 93, 12, 90, 73, 87, 85, 52, 89, 97, 42, 74, 57, 58, 89, 54, 110, 45, 68, 120, 59, 67, 46, 90, 51, 83, 80, 96, 50, 51, 116, 107, 87, 87, 64, 46, 84, 100, 45, 68, 82, 33, 34, 68, 81, 26, 100, 53, 42, 64, 85, 72, 62, 69, 76, 48, 29, 37, 102, 55, 108, 12, 91, 98, 27, 76, 79, 93, 86, 70, 38, 59, 42, 23, 81, 88, 84, 75
              |23, 48, 34, 63, 20, 56, 35, 31, 12, 18, 62, 32, 21, 42, 46, 64, 43, 52, 34, 60, 70, 39, 43, 22, 21, 42, 74, 61, 2, 50, 45, 52, 20, 69, 25, 52, 34, 25, 42, 17, 10, 47, 58, 54, 53, 46, 12, 62, 43, 58, 23, 43, 42, 25, 25, 40, 4, 6, 33, 55, 43, 43, 38, 14, 6, 21, 8, 69, 37, 53, 27, 72, 24, 50, 29, 63, 33, 46, 40, 45, 51, 49, 58, 45, 35, 42, 16, 60, 26, 28, 45, 52, 38, 78, 35, 17, 30, 58, 34, 61, 28, 55, 66, 62, 22, 46, 36, 34, 59, 70, 48, 25, 27, 34, 71, 29, 45, 26, 74, 47, 40, 28, 29, 33, 19, 36, 43, 16, 66, 66, 34, 35, 39, 54, 14, 33, 36, 44, 59, 40, 21, 21, 37, 64, 66, 51, 31, 48, 26, 72, 67, 20, 56, 40, 33, 45, 67, 24, 56, 46, 42, 22, 25, 59, 38, 19, 31, 59, 31, 29, 47, 35, 8, 11, 48, 11, 63, 44, 55, 22, 68, 34, 58, 59, 69, 50, 31, 45, 31, 23, 15, 48, 42, 45, 58, 27, 20, 30, 34, 9, 36, 56, 41, 55, 43, 53, 8, 30, 9, 44, 81, 47, 53, 44, 53, 58, 27, 65, 21, 56, 63, 57, 56, 34, 58, 31, 40, 46, 35, 16, 39, 63, 42, 29, 11, 19, 24, 13, 44, 36, 30, 58, 15, 40, 21, 48, 35, 16, 26, 32, 16, 40, 55, 43, 53, 27, 15, 35, 41, 36, 37, 45, 15, 36, 46, 24, 45, 59, 35, 29, 34, 7, 46, 45, 36, 59, 26, 18, 63, 36, 36, 12, 42, 65, 38, 46, 50, 45, 36, 83, 40, 15, 38, 36, 56, 46, 26, 38, 43, 9
              |76, 102, 57, 14, 68, 102, 20, 83, 43, 58, 87, 74, 67, 14, 73, 96, 66, 106, 79, 72, 93, 52, 67, 33, 43, 85, 94, 93, 56, 83, 70, 2, 49, 87, 30, 48, 87, 79, 28, 48, 58, 48, 57, 50, 44, 46, 55, 13, 97, 83, 76, 31, 66, 62, 57, 92, 55, 48, 86, 72, 96, 47, 87, 41, 53, 33, 51, 39, 65, 28, 78, 82, 74, 13, 38, 74, 42, 89, 67, 52, 18, 11, 101, 98, 89, 96, 64, 60, 45, 82, 59, 105, 19, 100, 56, 43, 84, 80, 22, 86, 75, 104, 99, 22, 66, 94, 18, 88, 41, 97, 97, 30, 81, 31, 86, 75, 28, 79, 38, 10, 70, 64, 30, 22, 35, 20, 46, 59, 64, 63, 55, 25, 40, 43, 50, 46, 34, 95, 99, 58, 46, 33, 19, 84, 99, 100, 78, 57, 45, 99, 21, 44, 110, 15, 72, 63, 42, 76, 82, 63, 94, 66, 74, 37, 57, 72, 48, 46, 61, 55, 84, 88, 62, 65, 74, 53, 85, 85, 106, 37, 44, 86, 58, 70, 82, 66, 83, 22, 64, 62, 55, 63, 32, 93, 30, 57, 52, 55, 22, 57, 46, 5, 92, 107, 52, 54, 52, 80, 52, 83, 104, 77, 4, 18, 85, 48, 39, 30, 40, 110, 27, 16, 5, 74, 28, 71, 74, 86, 64, 38, 85, 100, 19, 53, 43, 52, 78, 42, 97, 47, 47, 112, 52, 44, 36, 90, 29, 70, 61, 80, 38, 56, 108, 97, 63, 68, 57, 25, 61, 90, 49, 44, 68, 18, 11, 48, 82, 43, 84, 52, 22, 50, 85, 75, 39, 78, 72, 37, 47, 38, 87, 46, 96, 34, 70, 94, 38, 52, 57, 104, 84, 52, 41, 36, 55, 27, 75, 85, 84, 61
              |56, 81, 55, 44, 53, 90, 22, 65, 27, 30, 88, 64, 54, 18, 72, 93, 66, 83, 67, 79, 95, 55, 67, 23, 37, 75, 98, 90, 36, 79, 70, 29, 42, 91, 12, 60, 68, 56, 40, 21, 33, 57, 69, 62, 59, 55, 41, 43, 72, 83, 53, 9, 65, 32, 50, 65, 32, 29, 66, 76, 76, 19, 72, 20, 30, 22, 36, 64, 62, 48, 52, 91, 47, 36, 38, 81, 45, 78, 64, 24, 40, 34, 91, 73, 65, 73, 38, 72, 42, 60, 29, 84, 28, 103, 25, 17, 63, 82, 25, 87, 61, 89, 95, 49, 54, 80, 23, 65, 59, 97, 82, 25, 58, 36, 92, 47, 11, 53, 65, 31, 66, 33, 31, 24, 21, 13, 18, 46, 77, 77, 24, 6, 11, 58, 38, 16, 4, 78, 91, 27, 17, 17, 27, 87, 95, 85, 64, 63, 42, 99, 51, 16, 87, 18, 41, 33, 64, 51, 82, 66, 76, 53, 47, 57, 26, 47, 17, 62, 56, 51, 77, 64, 40, 44, 73, 39, 87, 75, 89, 12, 66, 61, 70, 77, 88, 70, 65, 38, 58, 52, 43, 67, 9, 79, 52, 26, 44, 52, 12, 41, 15, 35, 75, 88, 22, 64, 37, 64, 28, 75, 107, 74, 33, 14, 81, 64, 9, 56, 13, 89, 53, 43, 35, 44, 50, 41, 68, 78, 33, 21, 73, 94, 13, 22, 25, 43, 56, 29, 72, 50, 16, 91, 40, 15, 29, 80, 2, 46, 31, 51, 25, 58, 89, 75, 35, 39, 44, 7, 30, 69, 52, 17, 44, 23, 20, 18, 75, 61, 55, 49, 12, 27, 77, 72, 9, 81, 59, 26, 65, 43, 60, 33, 71, 58, 39, 80, 53, 24, 26, 108, 72, 25, 47, 6, 66, 42, 60, 71, 74, 37
              |42, 65, 51, 58, 42, 78, 31, 51, 21, 14, 82, 54, 43, 32, 66, 85, 62, 67, 55, 76, 90, 54, 62, 23, 34, 64, 93, 82, 23, 71, 64, 43, 36, 87, 16, 63, 53, 41, 46, 5, 17, 59, 71, 65, 62, 57, 32, 57, 56, 78, 37, 24, 60, 16, 43, 49, 18, 19, 51, 73, 61, 21, 59, 13, 16, 22, 26, 72, 56, 56, 35, 89, 30, 47, 38, 79, 44, 67, 59, 24, 50, 46, 79, 56, 49, 57, 22, 73, 39, 44, 25, 69, 36, 98, 17, 6, 47, 77, 32, 81, 50, 76, 87, 60, 44, 67, 32, 49, 65, 90, 69, 27, 43, 39, 89, 30, 27, 36, 75, 43, 60, 18, 33, 31, 19, 26, 22, 36, 79, 79, 15, 21, 18, 62, 31, 12, 17, 64, 81, 21, 1, 17, 36, 83, 87, 72, 52, 62, 39, 92, 64, 3, 71, 31, 26, 27, 72, 35, 76, 63, 61, 43, 31, 64, 19, 31, 10, 67, 50, 46, 68, 47, 25, 29, 67, 30, 82, 65, 74, 9, 73, 44, 71, 75, 86, 67, 51, 46, 51, 44, 34, 64, 23, 66, 60, 12, 37, 47, 24, 30, 14, 49, 61, 73, 21, 66, 27, 51, 13, 66, 101, 67, 47, 30, 74, 67, 8, 66, 6, 74, 63, 55, 49, 29, 59, 26, 60, 68, 21, 17, 61, 84, 28, 10, 18, 37, 40, 23, 56, 49, 9, 75, 33, 19, 28, 69, 19, 30, 16, 35, 22, 56, 73, 59, 33, 23, 35, 21, 23, 53, 51, 24, 28, 32, 35, 4, 66, 66, 39, 45, 24, 14, 67, 65, 15, 77, 48, 23, 71, 45, 43, 26, 55, 67, 26, 67, 58, 24, 17, 103, 61, 9, 48, 16, 68, 49, 48, 59, 64, 22
              |25, 14, 65, 107, 39, 47, 79, 25, 56, 44, 77, 45, 41, 85, 66, 70, 68, 11, 40, 85, 84, 73, 67, 66, 62, 45, 90, 69, 42, 62, 67, 96, 57, 86, 68, 88, 20, 19, 84, 52, 41, 83, 91, 90, 91, 83, 47, 106, 2, 75, 21, 81, 66, 46, 56, 13, 43, 50, 18, 80, 18, 73, 33, 57, 45, 65, 49, 110, 61, 95, 22, 95, 28, 94, 70, 87, 72, 45, 63, 72, 95, 93, 52, 4, 9, 6, 35, 91, 64, 17, 68, 18, 82, 91, 60, 56, 16, 77, 78, 75, 37, 37, 72, 105, 43, 36, 80, 10, 98, 80, 36, 69, 18, 76, 91, 31, 84, 21, 116, 91, 61, 46, 72, 77, 63, 79, 74, 46, 97, 98, 59, 76, 74, 92, 53, 65, 74, 29, 57, 63, 56, 64, 81, 82, 70, 35, 36, 80, 64, 81, 111, 57, 14, 83, 42, 65, 108, 22, 72, 74, 22, 44, 27, 100, 62, 26, 62, 97, 58, 61, 55, 10, 36, 33, 68, 49, 79, 49, 29, 63, 107, 13, 91, 86, 91, 76, 25, 89, 56, 49, 49, 76, 80, 37, 100, 52, 55, 61, 77, 44, 68, 100, 28, 26, 70, 87, 48, 30, 46, 52, 92, 64, 97, 85, 64, 95, 65, 107, 60, 22, 105, 101, 100, 39, 100, 40, 56, 51, 53, 60, 39, 63, 84, 57, 55, 54, 21, 57, 3, 72, 62, 22, 52, 73, 64, 49, 75, 28, 47, 27, 60, 72, 24, 10, 75, 39, 48, 77, 62, 14, 72, 77, 30, 80, 89, 57, 55, 98, 25, 63, 77, 48, 51, 63, 71, 80, 41, 62, 101, 75, 18, 55, 2, 107, 49, 36, 90, 72, 60, 94, 43, 48, 77, 73, 90, 88, 35, 38, 49, 37
              |72, 98, 57, 20, 65, 100, 17, 80, 39, 53, 87, 72, 65, 9, 73, 96, 66, 102, 77, 74, 94, 52, 67, 29, 41, 83, 95, 93, 52, 82, 70, 4, 47, 88, 26, 50, 84, 75, 30, 43, 53, 50, 60, 52, 47, 47, 52, 19, 92, 83, 72, 25, 66, 56, 55, 87, 50, 44, 83, 73, 93, 41, 84, 37, 49, 30, 48, 44, 64, 32, 74, 84, 69, 16, 37, 76, 42, 87, 67, 46, 21, 14, 99, 94, 85, 92, 59, 63, 44, 78, 53, 102, 18, 101, 50, 38, 81, 81, 20, 87, 73, 102, 98, 27, 64, 92, 16, 84, 45, 97, 94, 27, 77, 31, 88, 70, 22, 74, 43, 12, 69, 58, 29, 20, 31, 15, 40, 57, 67, 66, 49, 20, 34, 45, 47, 40, 28, 92, 98, 52, 41, 29, 18, 85, 99, 98, 76, 58, 44, 99, 27, 38, 106, 10, 66, 57, 46, 72, 82, 64, 91, 63, 69, 41, 51, 67, 43, 49, 60, 54, 83, 84, 57, 61, 74, 50, 86, 83, 103, 32, 48, 82, 60, 72, 83, 67, 80, 24, 63, 60, 52, 64, 26, 91, 34, 51, 50, 54, 17, 54, 40, 11, 89, 104, 46, 56, 49, 77, 48, 82, 105, 77, 9, 12, 85, 51, 34, 35, 35, 106, 32, 21, 11, 69, 32, 65, 73, 85, 58, 34, 83, 99, 13, 47, 39, 50, 74, 39, 93, 48, 41, 108, 49, 37, 34, 88, 23, 65, 55, 74, 35, 56, 105, 93, 57, 63, 54, 19, 55, 86, 49, 38, 64, 16, 5, 43, 81, 46, 79, 51, 17, 45, 84, 75, 33, 79, 69, 34, 50, 39, 82, 43, 91, 38, 64, 92, 41, 46, 51, 105, 82, 47, 41, 30, 57, 29, 73, 82, 82, 57
              |61, 83, 22, 49, 48, 66, 42, 63, 44, 69, 37, 44, 45, 52, 29, 50, 23, 89, 50, 20, 42, 13, 24, 42, 32, 51, 42, 47, 53, 40, 26, 53, 32, 35, 52, 5, 68, 69, 25, 63, 62, 6, 6, 4, 10, 8, 42, 49, 87, 34, 69, 70, 24, 76, 31, 88, 56, 50, 69, 21, 75, 81, 59, 52, 56, 42, 44, 30, 27, 26, 77, 30, 75, 40, 26, 22, 20, 54, 27, 85, 36, 42, 62, 89, 79, 82, 68, 9, 26, 69, 89, 84, 38, 48, 81, 59, 70, 30, 39, 37, 50, 73, 51, 39, 43, 64, 42, 77, 18, 47, 66, 39, 70, 27, 34, 81, 69, 76, 39, 43, 30, 79, 32, 40, 45, 52, 80, 42, 14, 15, 79, 58, 73, 12, 38, 74, 67, 68, 58, 85, 64, 48, 38, 33, 53, 70, 52, 8, 26, 49, 47, 61, 94, 50, 85, 91, 27, 74, 34, 17, 71, 43, 76, 22, 83, 68, 73, 13, 29, 26, 44, 80, 58, 58, 28, 42, 35, 48, 80, 57, 26, 81, 7, 17, 29, 17, 63, 31, 31, 37, 39, 15, 70, 62, 28, 75, 33, 25, 52, 46, 75, 50, 66, 82, 83, 1, 44, 58, 59, 45, 53, 34, 49, 60, 41, 11, 64, 34, 59, 87, 35, 41, 50, 85, 30, 83, 36, 49, 84, 47, 55, 56, 59, 75, 48, 34, 67, 42, 88, 16, 72, 90, 38, 77, 37, 53, 62, 65, 76, 83, 42, 15, 84, 80, 96, 79, 40, 57, 87, 73, 15, 80, 65, 42, 54, 68, 43, 17, 86, 24, 52, 55, 48, 32, 71, 27, 46, 41, 17, 20, 86, 40, 85, 32, 88, 64, 15, 85, 82, 52, 51, 64, 16, 69, 4, 25, 52, 55, 47, 61
              |44, 67, 52, 57, 44, 80, 30, 53, 22, 15, 84, 55, 45, 31, 67, 87, 63, 69, 57, 77, 91, 55, 63, 24, 35, 66, 95, 84, 25, 73, 66, 42, 38, 88, 16, 63, 55, 43, 46, 7, 19, 59, 71, 65, 63, 58, 33, 56, 57, 79, 39, 22, 62, 17, 45, 50, 20, 20, 53, 74, 63, 19, 61, 14, 18, 23, 28, 72, 57, 56, 37, 90, 32, 47, 39, 80, 45, 69, 60, 22, 50, 45, 81, 58, 51, 59, 23, 73, 40, 46, 24, 71, 36, 99, 16, 7, 49, 78, 32, 82, 52, 78, 89, 60, 46, 69, 32, 51, 65, 92, 71, 27, 45, 40, 90, 32, 25, 38, 75, 42, 61, 19, 34, 31, 20, 25, 20, 38, 79, 79, 15, 19, 16, 62, 33, 10, 15, 66, 82, 20, 3, 17, 35, 84, 89, 74, 54, 63, 40, 94, 63, 4, 73, 30, 27, 26, 72, 36, 77, 64, 63, 45, 32, 64, 18, 33, 9, 67, 51, 47, 70, 49, 27, 31, 69, 32, 83, 67, 76, 9, 73, 46, 72, 77, 87, 68, 53, 46, 53, 45, 36, 65, 21, 68, 60, 13, 39, 48, 23, 32, 13, 48, 63, 75, 20, 66, 29, 53, 15, 68, 103, 69, 46, 28, 75, 68, 6, 66, 6, 76, 63, 54, 48, 30, 59, 27, 62, 69, 21, 18, 63, 86, 27, 10, 19, 38, 42, 24, 58, 50, 7, 77, 34, 17, 28, 71, 17, 32, 17, 36, 23, 57, 75, 61, 32, 24, 37, 20, 22, 55, 51, 22, 30, 32, 34, 4, 68, 67, 40, 46, 23, 16, 69, 67, 13, 79, 50, 24, 71, 46, 45, 28, 57, 67, 27, 69, 58, 22, 17, 104, 63, 11, 49, 14, 69, 49, 50, 61, 66, 24
              |37, 60, 49, 61, 38, 73, 33, 46, 19, 9, 79, 50, 39, 36, 63, 82, 59, 62, 51, 74, 87, 52, 59, 24, 32, 60, 91, 79, 19, 68, 62, 47, 34, 85, 19, 62, 48, 36, 47, 1, 12, 58, 70, 65, 63, 57, 28, 60, 51, 75, 32, 29, 58, 13, 40, 44, 14, 16, 46, 71, 56, 25, 55, 12, 12, 23, 23, 74, 53, 58, 31, 87, 25, 50, 38, 78, 44, 63, 56, 27, 52, 48, 75, 51, 44, 52, 17, 72, 38, 39, 28, 64, 39, 95, 18, 6, 42, 75, 34, 78, 45, 71, 84, 63, 40, 63, 35, 44, 66, 87, 64, 28, 37, 40, 87, 26, 32, 31, 77, 46, 57, 16, 34, 33, 20, 29, 26, 33, 78, 78, 17, 25, 23, 62, 29, 16, 22, 59, 76, 23, 4, 18, 38, 80, 83, 67, 48, 61, 38, 89, 67, 6, 66, 34, 24, 29, 73, 30, 73, 61, 56, 39, 26, 65, 21, 26, 13, 67, 47, 44, 64, 42, 20, 24, 64, 27, 79, 61, 69, 12, 74, 39, 70, 74, 84, 65, 46, 48, 48, 40, 31, 62, 28, 62, 62, 11, 35, 45, 27, 27, 19, 53, 56, 68, 25, 65, 24, 46, 9, 62, 98, 64, 50, 34, 70, 68, 13, 68, 9, 69, 65, 57, 53, 26, 61, 22, 57, 64, 21, 17, 56, 80, 33, 12, 16, 34, 35, 22, 51, 48, 13, 70, 30, 23, 27, 65, 23, 25, 13, 30, 21, 54, 68, 54, 36, 19, 32, 25, 24, 48, 49, 28, 23, 35, 39, 7, 63, 67, 35, 43, 27, 11, 63, 62, 20, 75, 44, 23, 71, 45, 38, 24, 50, 69, 25, 63, 58, 27, 19, 100, 57, 4, 48, 21, 67, 50, 43, 55, 60, 17
              |37, 63, 38, 51, 33, 69, 22, 46, 8, 21, 70, 44, 34, 27, 53, 74, 49, 66, 47, 63, 77, 40, 49, 11, 20, 54, 81, 71, 17, 60, 52, 38, 23, 74, 11, 49, 49, 39, 34, 12, 18, 45, 57, 52, 49, 44, 21, 50, 56, 65, 36, 29, 47, 26, 31, 52, 14, 9, 47, 60, 58, 33, 52, 1, 13, 10, 16, 61, 43, 45, 38, 75, 34, 39, 25, 66, 31, 58, 46, 36, 41, 37, 70, 58, 49, 56, 24, 59, 26, 42, 38, 66, 27, 85, 30, 8, 45, 64, 22, 68, 41, 69, 76, 51, 34, 60, 24, 48, 53, 78, 62, 15, 41, 27, 76, 37, 31, 38, 65, 35, 47, 29, 21, 21, 7, 21, 33, 26, 65, 65, 29, 20, 27, 49, 19, 24, 23, 58, 71, 34, 13, 7, 26, 70, 76, 65, 44, 49, 26, 80, 56, 10, 70, 26, 36, 40, 60, 36, 63, 50, 56, 33, 34, 52, 33, 31, 23, 54, 37, 33, 57, 48, 21, 25, 55, 19, 69, 55, 69, 9, 61, 46, 58, 62, 73, 53, 46, 36, 39, 33, 23, 51, 29, 59, 49, 24, 25, 34, 19, 21, 26, 43, 55, 69, 34, 52, 16, 44, 12, 55, 89, 55, 40, 29, 62, 55, 16, 56, 9, 71, 53, 46, 43, 38, 49, 35, 49, 58, 34, 4, 52, 74, 27, 24, 5, 24, 38, 10, 57, 36, 21, 73, 21, 29, 14, 60, 21, 29, 26, 40, 9, 42, 70, 57, 46, 31, 24, 20, 36, 51, 37, 34, 28, 24, 31, 17, 56, 54, 44, 32, 19, 9, 57, 53, 24, 64, 39, 10, 58, 32, 47, 14, 55, 57, 38, 60, 45, 36, 31, 90, 52, 14, 35, 24, 55, 37, 40, 51, 54, 21
              |63, 83, 74, 65, 64, 100, 45, 72, 43, 30, 105, 77, 66, 40, 89, 108, 84, 83, 78, 98, 113, 75, 84, 43, 55, 86, 116, 105, 46, 94, 87, 49, 59, 110, 33, 82, 73, 59, 63, 27, 38, 78, 90, 84, 81, 77, 55, 64, 71, 101, 55, 20, 83, 27, 66, 61, 41, 42, 71, 95, 80, 4, 81, 35, 39, 42, 49, 86, 79, 71, 50, 110, 45, 58, 59, 101, 65, 90, 81, 1, 63, 56, 102, 71, 65, 74, 39, 93, 61, 63, 8, 87, 51, 120, 12, 28, 66, 100, 47, 104, 72, 97, 110, 71, 67, 89, 45, 66, 82, 113, 91, 46, 61, 58, 111, 42, 24, 52, 87, 53, 82, 26, 52, 46, 39, 36, 5, 59, 98, 98, 13, 28, 12, 80, 54, 11, 18, 85, 103, 10, 24, 36, 50, 105, 110, 93, 74, 83, 61, 115, 72, 26, 87, 40, 32, 13, 87, 51, 99, 85, 81, 66, 45, 80, 11, 49, 13, 85, 72, 69, 91, 63, 46, 50, 90, 53, 105, 88, 94, 28, 88, 59, 91, 97, 108, 89, 72, 61, 74, 67, 57, 86, 19, 88, 74, 21, 60, 69, 35, 53, 9, 56, 82, 92, 2, 86, 50, 72, 35, 89, 124, 90, 54, 33, 97, 86, 20, 78, 26, 92, 75, 65, 56, 35, 73, 33, 83, 90, 21, 38, 83, 107, 33, 16, 40, 60, 60, 45, 71, 70, 14, 93, 55, 8, 48, 92, 24, 50, 26, 46, 43, 77, 92, 77, 12, 33, 58, 29, 13, 72, 72, 8, 48, 45, 41, 20, 89, 83, 50, 67, 35, 37, 90, 88, 14, 100, 71, 44, 88, 64, 55, 49, 70, 81, 26, 89, 75, 1, 12, 125, 84, 30, 68, 16, 88, 65, 70, 82, 87, 43
              |25, 50, 35, 62, 22, 58, 33, 33, 11, 17, 64, 34, 23, 40, 48, 66, 44, 53, 36, 60, 72, 40, 44, 21, 21, 44, 76, 63, 4, 52, 47, 50, 21, 70, 23, 52, 36, 27, 41, 15, 10, 47, 58, 54, 53, 46, 13, 61, 45, 60, 24, 41, 43, 24, 26, 41, 4, 4, 35, 56, 45, 41, 40, 12, 4, 20, 9, 68, 38, 52, 28, 73, 24, 49, 28, 64, 33, 47, 41, 43, 50, 48, 60, 46, 37, 44, 16, 60, 26, 30, 43, 53, 37, 79, 34, 15, 32, 59, 33, 62, 30, 57, 68, 60, 24, 48, 35, 36, 58, 71, 50, 24, 28, 33, 72, 29, 43, 27, 73, 46, 41, 27, 28, 32, 18, 34, 41, 17, 66, 67, 33, 33, 37, 53, 15, 31, 34, 46, 61, 38, 19, 19, 36, 65, 68, 53, 33, 48, 26, 74, 66, 18, 58, 38, 33, 44, 67, 25, 57, 47, 44, 23, 25, 59, 37, 20, 29, 58, 32, 30, 49, 36, 9, 13, 49, 12, 64, 46, 57, 20, 67, 35, 59, 60, 70, 51, 33, 44, 33, 25, 16, 48, 40, 47, 57, 26, 21, 30, 32, 11, 34, 55, 43, 57, 41, 53, 9, 32, 8, 46, 83, 49, 52, 42, 55, 58, 25, 64, 19, 58, 62, 56, 55, 33, 57, 30, 41, 48, 34, 14, 41, 64, 40, 28, 9, 20, 26, 12, 45, 36, 28, 60, 15, 38, 20, 50, 33, 18, 25, 32, 15, 41, 57, 45, 52, 26, 16, 33, 40, 38, 37, 43, 16, 35, 44, 22, 47, 59, 36, 29, 32, 5, 47, 47, 34, 60, 28, 17, 63, 35, 37, 12, 43, 64, 37, 48, 50, 43, 35, 84, 41, 13, 38, 34, 56, 45, 28, 40, 45, 10
              |27, 23, 45, 101, 28, 12, 76, 17, 55, 59, 46, 23, 29, 86, 39, 36, 44, 30, 17, 57, 51, 55, 42, 64, 53, 15, 57, 35, 45, 31, 41, 94, 47, 55, 71, 69, 18, 32, 74, 63, 52, 64, 69, 70, 74, 65, 42, 100, 37, 44, 36, 90, 42, 64, 41, 45, 49, 52, 21, 52, 17, 88, 9, 61, 51, 64, 46, 94, 39, 83, 46, 66, 49, 88, 60, 60, 58, 13, 39, 90, 87, 88, 17, 38, 34, 29, 51, 68, 52, 29, 88, 22, 77, 57, 78, 64, 26, 47, 74, 44, 21, 8, 37, 95, 29, 2, 78, 31, 81, 46, 1, 66, 31, 67, 60, 55, 92, 43, 102, 87, 36, 66, 66, 74, 64, 81, 89, 37, 73, 75, 77, 81, 86, 75, 46, 79, 83, 6, 22, 82, 67, 66, 77, 51, 36, 4, 17, 58, 52, 47, 103, 66, 34, 84, 66, 86, 91, 42, 41, 50, 13, 30, 49, 85, 81, 42, 76, 78, 39, 44, 24, 36, 43, 39, 41, 44, 48, 19, 14, 69, 91, 40, 69, 59, 61, 51, 17, 80, 36, 34, 41, 52, 89, 4, 87, 69, 44, 45, 79, 40, 82, 96, 8, 17, 87, 66, 45, 17, 55, 22, 58, 35, 94, 89, 33, 76, 74, 95, 68, 23, 94, 93, 96, 64, 88, 63, 30, 19, 74, 61, 11, 28, 87, 73, 56, 44, 31, 55, 38, 56, 76, 26, 44, 86, 60, 16, 82, 40, 65, 53, 59, 52, 20, 25, 96, 60, 39, 81, 82, 23, 56, 92, 42, 78, 90, 70, 25, 81, 53, 47, 79, 54, 20, 35, 83, 51, 24, 60, 83, 63, 48, 51, 35, 94, 73, 2, 75, 90, 79, 60, 15, 59, 63, 83, 69, 77, 21, 12, 19, 47
              |23, 39, 53, 82, 31, 60, 54, 31, 33, 15, 77, 44, 34, 58, 62, 76, 61, 39, 42, 78, 85, 60, 60, 42, 43, 50, 90, 73, 20, 63, 62, 69, 41, 85, 41, 73, 30, 16, 63, 24, 14, 68, 79, 75, 75, 67, 31, 81, 28, 74, 12, 52, 59, 17, 43, 21, 18, 26, 28, 73, 37, 44, 41, 31, 19, 41, 29, 90, 54, 74, 7, 90, 2, 70, 50, 81, 55, 52, 57, 44, 72, 69, 63, 28, 21, 30, 7, 80, 47, 20, 41, 43, 58, 93, 32, 28, 23, 74, 54, 76, 36, 55, 78, 82, 36, 49, 55, 22, 80, 83, 50, 46, 18, 55, 88, 9, 55, 8, 95, 66, 56, 18, 50, 53, 38, 52, 45, 33, 86, 87, 31, 48, 45, 75, 35, 36, 45, 43, 67, 35, 27, 38, 57, 80, 77, 51, 38, 68, 47, 85, 87, 29, 43, 57, 18, 39, 89, 7, 71, 65, 38, 35, 3, 81, 34, 7, 33, 80, 48, 48, 58, 19, 15, 16, 64, 31, 78, 53, 50, 35, 89, 16, 79, 78, 87, 68, 31, 66, 48, 40, 34, 67, 51, 48, 79, 23, 40, 49, 50, 27, 39, 74, 41, 49, 42, 74, 29, 33, 19, 55, 95, 62, 72, 57, 66, 80, 36, 86, 32, 48, 84, 77, 74, 16, 79, 15, 54, 55, 26, 35, 45, 71, 56, 28, 30, 39, 17, 34, 28, 57, 33, 49, 35, 44, 42, 56, 47, 9, 18, 10, 37, 60, 48, 33, 49, 12, 33, 49, 35, 29, 58, 49, 9, 55, 62, 28, 57, 81, 14, 49, 50, 22, 55, 60, 42, 76, 37, 39, 85, 57, 16, 34, 27, 87, 25, 49, 72, 44, 32, 97, 47, 19, 60, 44, 77, 67, 33, 44, 53, 12
              |85, 110, 51, 21, 73, 98, 38, 89, 56, 79, 72, 74, 71, 41, 63, 85, 56, 115, 80, 54, 76, 43, 58, 47, 48, 83, 75, 82, 69, 74, 60, 35, 52, 69, 52, 30, 94, 91, 26, 70, 75, 34, 36, 31, 25, 32, 62, 22, 109, 68, 89, 62, 57, 84, 57, 107, 70, 63, 94, 56, 103, 77, 89, 59, 69, 48, 61, 7, 59, 14, 95, 60, 91, 23, 40, 55, 39, 87, 59, 82, 19, 25, 96, 111, 102, 106, 82, 39, 46, 92, 88, 112, 32, 81, 83, 65, 94, 65, 37, 72, 78, 104, 86, 11, 69, 95, 37, 100, 17, 82, 97, 43, 92, 34, 66, 95, 60, 94, 6, 28, 63, 87, 38, 38, 51, 46, 77, 65, 40, 38, 82, 53, 69, 23, 57, 74, 63, 97, 92, 86, 69, 52, 33, 67, 88, 101, 81, 42, 46, 84, 16, 66, 120, 41, 95, 92, 11, 92, 69, 51, 99, 69, 92, 13, 85, 86, 75, 22, 58, 53, 78, 101, 75, 77, 63, 61, 70, 81, 109, 60, 13, 101, 37, 51, 61, 52, 89, 23, 61, 64, 60, 49, 63, 93, 10, 81, 55, 52, 47, 66, 74, 28, 95, 111, 81, 36, 62, 85, 70, 78, 86, 68, 29, 49, 75, 25, 65, 3, 63, 115, 6, 17, 28, 96, 10, 93, 68, 82, 90, 55, 85, 91, 49, 78, 58, 56, 89, 55, 110, 41, 73, 118, 58, 73, 47, 85, 57, 84, 84, 98, 52, 46, 113, 106, 94, 90, 62, 52, 89, 99, 41, 75, 83, 37, 41, 73, 76, 18, 102, 50, 47, 66, 81, 66, 68, 62, 74, 50, 20, 35, 104, 56, 108, 3, 95, 95, 22, 82, 84, 85, 82, 73, 34, 65, 34, 22, 79, 85, 80, 76
              |53, 79, 26, 33, 42, 72, 17, 58, 25, 49, 56, 45, 40, 27, 42, 65, 35, 83, 51, 43, 63, 21, 36, 18, 16, 56, 64, 62, 38, 52, 39, 30, 21, 57, 27, 22, 63, 59, 6, 41, 44, 20, 31, 25, 21, 18, 30, 33, 77, 52, 57, 45, 35, 55, 27, 76, 39, 31, 63, 42, 72, 56, 60, 30, 38, 19, 29, 33, 34, 17, 63, 54, 59, 20, 9, 45, 11, 60, 36, 60, 19, 21, 71, 79, 70, 74, 51, 34, 16, 60, 65, 81, 13, 69, 57, 36, 62, 49, 13, 56, 48, 76, 67, 28, 39, 66, 17, 68, 24, 66, 68, 14, 60, 2, 57, 64, 44, 62, 38, 21, 39, 58, 8, 14, 22, 27, 55, 33, 39, 39, 56, 33, 48, 21, 25, 50, 42, 68, 69, 61, 41, 25, 13, 54, 68, 72, 51, 27, 16, 68, 35, 38, 88, 25, 65, 67, 32, 60, 51, 33, 69, 38, 60, 24, 60, 55, 50, 25, 31, 25, 53, 69, 43, 45, 42, 29, 55, 55, 80, 33, 32, 69, 32, 41, 53, 35, 58, 12, 34, 34, 29, 32, 45, 65, 22, 53, 24, 25, 26, 34, 51, 30, 65, 81, 59, 27, 30, 54, 40, 53, 74, 46, 28, 35, 54, 26, 40, 29, 36, 85, 28, 25, 30, 66, 22, 63, 43, 56, 62, 25, 57, 69, 33, 52, 27, 25, 57, 23, 78, 16, 48, 87, 26, 52, 15, 60, 37, 52, 55, 67, 21, 25, 83, 74, 72, 60, 31, 32, 64, 67, 17, 55, 51, 17, 30, 46, 51, 25, 71, 22, 26, 36, 55, 44, 46, 48, 44, 19, 29, 7, 72, 24, 76, 30, 67, 66, 16, 60, 58, 74, 54, 43, 10, 44, 29, 10, 49, 56, 54, 45
              |15, 18, 43, 95, 21, 23, 69, 6, 47, 48, 51, 21, 22, 77, 41, 44, 44, 25, 15, 60, 58, 52, 43, 56, 47, 19, 63, 42, 35, 36, 43, 87, 41, 60, 62, 67, 7, 21, 69, 52, 41, 62, 69, 69, 71, 63, 34, 94, 28, 49, 25, 80, 42, 53, 36, 35, 39, 42, 10, 55, 11, 77, 7, 51, 41, 56, 38, 91, 38, 79, 34, 69, 37, 81, 54, 62, 54, 19, 39, 78, 81, 81, 28, 30, 24, 20, 39, 68, 47, 17, 76, 19, 70, 64, 67, 54, 15, 51, 67, 49, 15, 18, 46, 90, 23, 12, 70, 21, 79, 54, 13, 58, 19, 61, 65, 44, 82, 31, 98, 80, 36, 55, 59, 66, 55, 72, 78, 30, 74, 75, 66, 72, 75, 72, 39, 68, 73, 7, 32, 71, 56, 57, 70, 56, 44, 15, 12, 57, 47, 55, 97, 56, 30, 75, 54, 75, 89, 31, 46, 50, 6, 24, 37, 81, 70, 30, 65, 76, 36, 40, 29, 26, 32, 28, 43, 35, 53, 23, 18, 59, 88, 29, 68, 61, 65, 52, 6, 74, 33, 29, 34, 52, 79, 12, 83, 58, 38, 41, 70, 31, 71, 89, 4, 19, 76, 65, 37, 8, 44, 26, 66, 38, 87, 80, 38, 75, 64, 91, 58, 23, 89, 88, 89, 52, 84, 52, 31, 24, 63, 52, 13, 38, 78, 62, 47, 37, 20, 46, 29, 52, 65, 25, 37, 76, 52, 23, 72, 29, 53, 42, 50, 50, 21, 17, 85, 49, 32, 72, 71, 13, 52, 81, 31, 70, 81, 59, 29, 79, 42, 43, 70, 44, 25, 38, 72, 54, 19, 52, 81, 58, 37, 43, 26, 90, 61, 12, 71, 78, 67, 68, 17, 49, 59, 73, 68, 72, 14, 12, 23, 36
              |72, 98, 52, 15, 63, 97, 15, 79, 38, 55, 82, 69, 62, 11, 68, 91, 62, 102, 74, 68, 88, 47, 62, 28, 38, 80, 89, 88, 52, 78, 65, 4, 44, 83, 27, 44, 83, 75, 23, 45, 54, 43, 53, 46, 40, 41, 50, 14, 93, 78, 72, 31, 61, 59, 52, 88, 51, 44, 82, 67, 92, 47, 82, 37, 50, 29, 47, 37, 60, 25, 75, 78, 70, 9, 33, 70, 37, 84, 62, 52, 14, 7, 96, 94, 85, 92, 61, 56, 40, 78, 58, 101, 14, 95, 55, 40, 80, 75, 17, 82, 71, 99, 94, 20, 62, 90, 14, 84, 37, 92, 92, 25, 77, 26, 82, 72, 28, 75, 37, 5, 65, 61, 25, 17, 31, 17, 46, 54, 60, 59, 54, 24, 39, 39, 45, 45, 33, 90, 94, 57, 43, 30, 14, 79, 94, 96, 74, 52, 40, 94, 21, 41, 106, 12, 69, 63, 39, 73, 77, 58, 89, 61, 71, 33, 56, 68, 47, 42, 56, 50, 79, 84, 58, 61, 69, 48, 81, 80, 102, 34, 41, 83, 54, 65, 77, 61, 79, 17, 59, 57, 50, 58, 32, 88, 27, 55, 47, 50, 19, 53, 45, 6, 87, 102, 51, 50, 47, 76, 49, 78, 100, 72, 4, 18, 80, 44, 37, 28, 37, 105, 25, 14, 6, 72, 25, 68, 69, 81, 62, 34, 81, 95, 18, 51, 39, 48, 74, 38, 94, 42, 45, 107, 47, 43, 31, 85, 27, 66, 59, 76, 34, 51, 104, 93, 63, 66, 52, 23, 60, 86, 44, 44, 64, 14, 10, 46, 77, 39, 81, 47, 19, 46, 80, 70, 38, 73, 67, 32, 43, 33, 84, 41, 92, 31, 68, 90, 34, 52, 56, 100, 79, 49, 36, 35, 50, 23, 71, 80, 79, 57
              |77, 102, 45, 19, 65, 92, 30, 81, 47, 71, 68, 67, 63, 34, 58, 80, 51, 107, 73, 51, 73, 36, 52, 39, 40, 76, 72, 77, 61, 69, 55, 29, 45, 66, 44, 26, 86, 82, 17, 61, 67, 28, 34, 27, 21, 27, 54, 19, 101, 64, 81, 55, 52, 76, 49, 99, 62, 54, 86, 52, 95, 70, 82, 51, 61, 40, 53, 12, 52, 6, 86, 59, 82, 16, 32, 52, 31, 80, 53, 75, 11, 18, 90, 103, 93, 98, 74, 37, 38, 84, 80, 104, 24, 78, 75, 56, 86, 61, 28, 68, 70, 97, 82, 8, 62, 88, 29, 91, 15, 78, 90, 35, 84, 25, 64, 86, 53, 85, 15, 21, 57, 78, 30, 29, 43, 38, 69, 57, 39, 38, 74, 45, 62, 19, 48, 66, 56, 90, 87, 78, 61, 44, 25, 64, 83, 94, 73, 37, 38, 80, 16, 58, 112, 34, 86, 84, 14, 83, 65, 46, 91, 61, 83, 10, 77, 78, 67, 20, 51, 45, 72, 93, 67, 69, 57, 53, 66, 74, 102, 51, 16, 92, 35, 48, 59, 47, 81, 14, 54, 56, 52, 45, 56, 86, 3, 73, 47, 45, 39, 58, 66, 23, 88, 104, 74, 32, 53, 77, 62, 72, 83, 62, 24, 42, 70, 23, 57, 6, 54, 108, 4, 12, 23, 88, 1, 85, 62, 76, 81, 46, 78, 86, 42, 70, 50, 48, 81, 46, 102, 34, 65, 110, 50, 66, 38, 79, 49, 75, 76, 90, 43, 40, 106, 98, 86, 81, 54, 44, 81, 91, 34, 68, 74, 29, 35, 64, 70, 16, 94, 42, 39, 58, 74, 61, 60, 58, 66, 41, 20, 27, 95, 47, 99, 7, 87, 88, 16, 75, 76, 83, 75, 64, 27, 58, 31, 14, 72, 78, 73, 68
              |38, 64, 22, 46, 28, 62, 21, 44, 11, 36, 54, 34, 27, 31, 38, 60, 32, 69, 39, 45, 61, 22, 33, 11, 3, 45, 64, 57, 22, 46, 36, 39, 9, 57, 22, 32, 49, 44, 22, 29, 30, 28, 40, 34, 33, 26, 16, 45, 62, 49, 42, 43, 31, 42, 17, 60, 24, 17, 48, 42, 57, 50, 47, 19, 24, 12, 14, 48, 28, 33, 48, 58, 45, 33, 8, 48, 13, 49, 31, 53, 33, 33, 61, 64, 54, 59, 36, 41, 8, 45, 56, 67, 22, 69, 48, 25, 47, 48, 18, 53, 35, 64, 62, 42, 26, 54, 22, 53, 38, 63, 56, 11, 45, 14, 59, 50, 43, 47, 53, 31, 33, 46, 10, 18, 13, 28, 50, 19, 47, 48, 47, 31, 43, 33, 10, 42, 38, 55, 60, 52, 31, 17, 21, 53, 63, 60, 38, 31, 8, 65, 49, 28, 74, 29, 52, 58, 46, 45, 48, 33, 55, 25, 46, 38, 51, 39, 41, 38, 23, 17, 45, 54, 28, 30, 39, 14, 53, 45, 67, 25, 47, 54, 40, 44, 55, 36, 44, 26, 25, 22, 15, 33, 42, 53, 37, 42, 12, 18, 26, 19, 43, 41, 52, 68, 51, 34, 14, 41, 26, 44, 73, 41, 38, 37, 48, 38, 33, 45, 27, 71, 43, 39, 41, 53, 37, 50, 36, 47, 51, 14, 45, 62, 35, 42, 14, 12, 42, 9, 63, 18, 39, 73, 12, 46, 5, 50, 34, 37, 43, 52, 9, 25, 69, 59, 64, 46, 17, 30, 54, 52, 19, 50, 36, 22, 35, 35, 43, 39, 56, 15, 26, 22, 46, 39, 40, 48, 31, 8, 42, 15, 57, 9, 61, 45, 55, 54, 30, 53, 49, 74, 43, 30, 18, 39, 37, 25, 35, 44, 44, 30
              |43, 60, 66, 78, 49, 81, 51, 52, 38, 13, 94, 62, 51, 52, 78, 94, 75, 59, 61, 91, 102, 70, 75, 43, 50, 70, 106, 91, 32, 81, 77, 63, 51, 100, 37, 81, 52, 37, 66, 20, 22, 76, 88, 83, 81, 75, 43, 77, 46, 90, 33, 39, 73, 7, 56, 36, 27, 33, 49, 87, 58, 26, 62, 31, 26, 42, 39, 93, 69, 76, 26, 104, 22, 68, 57, 94, 62, 72, 71, 25, 71, 66, 84, 46, 41, 50, 19, 90, 56, 41, 20, 64, 57, 109, 13, 25, 44, 90, 53, 92, 55, 76, 96, 81, 52, 69, 53, 43, 85, 101, 71, 47, 39, 59, 103, 17, 42, 28, 96, 63, 71, 4, 53, 52, 39, 46, 28, 47, 96, 97, 13, 40, 30, 81, 45, 21, 33, 64, 86, 15, 20, 37, 56, 96, 95, 72, 57, 79, 56, 103, 84, 23, 62, 51, 7, 17, 92, 28, 87, 78, 59, 52, 21, 84, 14, 28, 18, 86, 62, 60, 76, 39, 30, 33, 80, 42, 94, 72, 72, 30, 93, 35, 89, 91, 101, 81, 52, 67, 63, 55, 47, 79, 37, 69, 81, 9, 51, 61, 44, 40, 23, 69, 62, 70, 23, 83, 40, 54, 23, 74, 112, 79, 67, 48, 84, 86, 26, 86, 27, 69, 84, 75, 69, 10, 80, 8, 70, 74, 5, 36, 65, 91, 47, 13, 35, 51, 38, 40, 46, 66, 19, 69, 46, 27, 46, 75, 37, 29, 6, 21, 40, 72, 69, 54, 27, 9, 47, 41, 14, 50, 67, 31, 27, 53, 55, 17, 75, 86, 25, 60, 44, 27, 74, 77, 28, 91, 55, 42, 90, 64, 30, 42, 46, 88, 6, 69, 77, 25, 13, 114, 67, 18, 67, 31, 86, 69, 53, 64, 72, 25
              |47, 65, 13, 66, 34, 45, 52, 46, 43, 64, 20, 26, 31, 62, 8, 30, 3, 72, 32, 14, 27, 15, 4, 45, 31, 31, 30, 27, 46, 19, 5, 66, 28, 23, 56, 25, 51, 56, 39, 61, 56, 22, 23, 26, 30, 24, 34, 66, 72, 16, 57, 77, 5, 71, 21, 75, 51, 46, 53, 9, 58, 83, 41, 52, 51, 46, 39, 51, 10, 45, 67, 26, 66, 55, 31, 17, 25, 34, 8, 87, 52, 56, 41, 74, 65, 66, 61, 22, 26, 55, 89, 66, 49, 35, 80, 58, 55, 14, 48, 20, 34, 52, 32, 58, 29, 44, 52, 62, 38, 30, 46, 44, 56, 36, 25, 73, 77, 64, 60, 57, 11, 74, 39, 48, 48, 60, 83, 32, 27, 29, 79, 65, 77, 32, 33, 75, 72, 49, 37, 84, 63, 51, 49, 19, 33, 50, 35, 13, 26, 32, 66, 61, 77, 60, 79, 90, 48, 63, 15, 4, 53, 29, 67, 43, 83, 58, 74, 34, 16, 18, 23, 66, 50, 49, 7, 35, 19, 28, 60, 59, 47, 68, 23, 15, 23, 5, 46, 46, 16, 25, 31, 6, 76, 42, 47, 72, 27, 17, 59, 38, 77, 65, 47, 63, 85, 21, 38, 41, 55, 25, 39, 13, 64, 69, 20, 32, 66, 54, 60, 68, 55, 58, 65, 79, 49, 76, 16, 28, 81, 48, 35, 36, 68, 74, 46, 27, 54, 41, 73, 20, 72, 71, 32, 80, 39, 32, 68, 55, 72, 74, 43, 11, 65, 63, 97, 72, 31, 64, 86, 57, 18, 84, 56, 52, 65, 68, 22, 38, 76, 19, 59, 51, 27, 11, 74, 13, 30, 43, 38, 29, 74, 38, 70, 52, 84, 44, 34, 87, 81, 40, 31, 60, 26, 73, 23, 41, 36, 36, 27, 53
              |47, 52, 37, 95, 39, 21, 77, 40, 61, 75, 18, 26, 37, 87, 22, 7, 29, 59, 27, 35, 22, 44, 27, 67, 53, 19, 28, 6, 57, 11, 25, 93, 48, 27, 77, 55, 44, 55, 67, 75, 67, 51, 51, 55, 60, 53, 48, 95, 65, 19, 58, 98, 28, 81, 39, 72, 62, 61, 47, 31, 46, 101, 30, 69, 64, 67, 54, 81, 29, 74, 69, 39, 70, 83, 56, 36, 52, 18, 27, 103, 81, 84, 15, 66, 61, 57, 69, 49, 49, 52, 103, 51, 75, 28, 94, 75, 51, 23, 73, 17, 33, 32, 9, 87, 36, 27, 78, 57, 68, 17, 28, 67, 54, 63, 33, 77, 99, 66, 89, 84, 24, 84, 64, 74, 68, 84, 101, 43, 52, 54, 92, 87, 96, 62, 50, 91, 92, 34, 9, 98, 79, 72, 75, 25, 8, 31, 31, 43, 49, 18, 95, 77, 63, 85, 86, 103, 77, 65, 17, 34, 41, 37, 71, 72, 97, 62, 89, 64, 34, 39, 12, 62, 58, 55, 22, 50, 21, 16, 41, 77, 76, 66, 50, 38, 36, 33, 40, 74, 31, 36, 46, 35, 97, 26, 77, 85, 45, 39, 82, 49, 94, 93, 35, 45, 101, 50, 53, 36, 68, 14, 29, 17, 91, 93, 9, 61, 85, 84, 78, 51, 84, 87, 93, 85, 78, 84, 21, 14, 92, 67, 25, 6, 91, 88, 64, 45, 54, 60, 66, 47, 88, 54, 48, 98, 62, 14, 89, 60, 82, 76, 63, 40, 48, 53, 112, 80, 45, 86, 99, 50, 46, 103, 61, 78, 91, 83, 13, 67, 77, 42, 82, 66, 13, 19, 93, 27, 33, 64, 67, 56, 73, 56, 63, 82, 93, 27, 63, 103, 94, 31, 22, 73, 54, 93, 52, 70, 35, 26, 16, 62
              |27, 35, 62, 92, 38, 62, 64, 33, 43, 24, 84, 49, 41, 68, 69, 80, 69, 34, 47, 86, 91, 69, 68, 52, 53, 54, 96, 78, 30, 69, 70, 79, 50, 91, 51, 83, 31, 18, 74, 33, 24, 78, 88, 85, 85, 77, 40, 91, 21, 80, 15, 60, 67, 23, 52, 12, 29, 36, 28, 81, 35, 51, 44, 41, 30, 51, 39, 100, 62, 85, 5, 98, 8, 80, 60, 89, 64, 56, 64, 50, 82, 79, 66, 21, 17, 26, 17, 89, 57, 21, 45, 40, 68, 98, 38, 38, 23, 81, 64, 82, 42, 55, 82, 92, 43, 50, 65, 19, 90, 89, 51, 56, 19, 66, 95, 8, 64, 8, 105, 77, 63, 24, 60, 63, 49, 62, 52, 41, 95, 96, 37, 57, 52, 85, 45, 43, 53, 44, 70, 40, 36, 49, 67, 87, 81, 51, 42, 77, 57, 90, 97, 38, 37, 67, 19, 42, 99, 9, 77, 73, 38, 43, 7, 91, 39, 14, 40, 90, 56, 57, 63, 15, 25, 24, 71, 40, 85, 58, 49, 45, 99, 10, 88, 87, 94, 77, 33, 76, 56, 47, 43, 75, 59, 50, 89, 30, 49, 58, 59, 36, 46, 85, 42, 46, 48, 83, 39, 37, 29, 60, 101, 69, 82, 67, 72, 89, 45, 96, 42, 44, 94, 88, 85, 16, 89, 17, 60, 60, 30, 45, 49, 75, 65, 35, 41, 48, 20, 44, 21, 66, 41, 45, 44, 51, 52, 60, 56, 17, 24, 4, 47, 69, 45, 30, 52, 16, 42, 58, 39, 27, 67, 55, 17, 65, 71, 36, 62, 91, 4, 58, 59, 33, 60, 67, 50, 83, 43, 49, 94, 67, 6, 44, 21, 97, 26, 50, 82, 50, 37, 103, 52, 29, 70, 52, 86, 77, 38, 47, 57, 22
              |65, 79, 33, 79, 53, 51, 70, 62, 64, 85, 12, 42, 50, 80, 22, 26, 23, 86, 47, 10, 13, 33, 24, 65, 52, 42, 11, 25, 67, 25, 22, 83, 48, 5, 76, 36, 67, 74, 55, 82, 77, 35, 28, 34, 40, 37, 55, 79, 88, 12, 76, 96, 25, 92, 42, 93, 71, 67, 69, 12, 71, 104, 54, 72, 72, 66, 59, 58, 30, 57, 86, 9, 85, 70, 50, 9, 44, 44, 27, 108, 66, 72, 46, 90, 82, 81, 81, 25, 46, 73, 110, 78, 66, 17, 101, 79, 72, 10, 66, 14, 50, 61, 27, 69, 48, 55, 70, 79, 47, 19, 56, 63, 74, 54, 4, 92, 96, 83, 66, 73, 28, 95, 58, 67, 68, 79, 104, 52, 25, 27, 99, 84, 98, 42, 54, 96, 92, 61, 40, 105, 84, 71, 67, 6, 29, 60, 51, 26, 46, 21, 77, 82, 90, 78, 99, 111, 54, 82, 15, 22, 66, 48, 86, 52, 104, 77, 94, 42, 36, 39, 33, 83, 70, 68, 20, 56, 9, 38, 70, 79, 52, 86, 27, 13, 5, 18, 62, 61, 36, 44, 52, 21, 96, 53, 58, 93, 47, 38, 78, 58, 98, 80, 61, 74, 106, 29, 59, 57, 75, 35, 22, 23, 79, 88, 24, 39, 87, 64, 81, 80, 65, 71, 80, 99, 60, 97, 31, 38, 102, 69, 48, 36, 86, 94, 67, 48, 72, 62, 89, 38, 93, 83, 53, 100, 59, 41, 87, 75, 92, 93, 64, 30, 77, 78, 118, 93, 52, 84, 107, 73, 37, 105, 75, 70, 83, 88, 32, 46, 95, 40, 78, 72, 37, 24, 95, 8, 48, 63, 44, 46, 93, 58, 86, 61, 104, 55, 46, 108, 102, 22, 44, 81, 43, 93, 30, 56, 53, 49, 38, 74
              |71, 82, 44, 91, 60, 51, 81, 67, 74, 94, 15, 49, 58, 92, 30, 24, 33, 89, 52, 22, 8, 44, 33, 76, 62, 46, 2, 24, 76, 30, 31, 94, 59, 8, 87, 47, 72, 81, 66, 92, 86, 46, 39, 46, 52, 49, 64, 91, 93, 18, 83, 107, 35, 101, 52, 99, 80, 77, 74, 23, 75, 115, 58, 83, 82, 77, 69, 69, 39, 68, 93, 16, 93, 82, 61, 20, 55, 47, 36, 118, 78, 83, 45, 95, 88, 85, 90, 36, 57, 79, 120, 81, 78, 6, 111, 89, 78, 18, 78, 16, 57, 62, 24, 81, 56, 57, 82, 85, 58, 14, 58, 75, 80, 66, 9, 100, 107, 90, 77, 85, 36, 104, 70, 78, 79, 91, 115, 61, 35, 37, 109, 95, 108, 54, 64, 106, 103, 64, 39, 115, 94, 82, 78, 12, 26, 61, 57, 38, 57, 14, 89, 92, 93, 90, 108, 121, 65, 89, 21, 33, 70, 56, 94, 63, 114, 85, 105, 53, 46, 49, 36, 89, 78, 76, 28, 66, 13, 42, 72, 90, 63, 92, 38, 25, 14, 30, 67, 73, 45, 53, 61, 33, 107, 56, 70, 103, 57, 48, 90, 67, 108, 92, 64, 76, 116, 41, 68, 63, 85, 39, 11, 30, 91, 99, 27, 50, 98, 75, 91, 81, 76, 83, 92, 107, 72, 105, 38, 41, 111, 79, 52, 34, 98, 104, 77, 58, 79, 72, 94, 49, 103, 85, 62, 111, 70, 43, 99, 82, 102, 100, 74, 41, 79, 82, 128, 101, 61, 95, 117, 78, 48, 116, 83, 82, 95, 98, 37, 57, 102, 50, 90, 82, 40, 31, 106, 18, 55, 74, 55, 58, 99, 69, 91, 72, 113, 57, 57, 118, 112, 10, 49, 91, 55, 104, 41, 67, 60, 53, 42, 82
              |36, 10, 71, 119, 47, 40, 92, 31, 69, 60, 77, 49, 49, 99, 69, 67, 72, 6, 43, 87, 82, 80, 71, 79, 72, 45, 88, 66, 55, 62, 71, 109, 67, 86, 82, 95, 25, 33, 95, 68, 56, 90, 97, 97, 99, 90, 58, 119, 19, 75, 36, 97, 70, 62, 63, 30, 57, 63, 25, 82, 17, 90, 34, 71, 59, 78, 61, 119, 66, 105, 39, 96, 44, 106, 80, 90, 81, 44, 67, 89, 106, 106, 46, 19, 24, 16, 51, 97, 74, 30, 85, 9, 94, 88, 77, 72, 27, 78, 90, 75, 43, 29, 68, 116, 51, 33, 93, 24, 106, 77, 32, 82, 31, 87, 91, 48, 100, 37, 125, 104, 64, 63, 84, 90, 77, 93, 91, 55, 102, 103, 76, 91, 90, 100, 64, 81, 90, 27, 52, 80, 72, 78, 94, 82, 66, 29, 40, 85, 74, 78, 123, 73, 4, 97, 59, 82, 116, 39, 72, 78, 22, 51, 44, 109, 79, 42, 78, 104, 64, 68, 55, 26, 50, 47, 71, 60, 79, 49, 19, 78, 116, 30, 97, 89, 92, 80, 31, 100, 61, 56, 59, 81, 96, 34, 110, 68, 64, 69, 91, 55, 84, 113, 28, 15, 87, 93, 60, 35, 61, 52, 88, 66, 110, 100, 64, 103, 80, 117, 76, 9, 116, 113, 113, 56, 110, 57, 59, 50, 70, 73, 40, 58, 98, 74, 68, 64, 34, 69, 19, 80, 78, 7, 62, 89, 76, 47, 90, 43, 63, 44, 73, 78, 12, 14, 92, 56, 57, 91, 79, 21, 80, 94, 45, 93, 103, 73, 56, 107, 41, 71, 91, 63, 51, 65, 87, 81, 47, 75, 109, 85, 35, 66, 19, 117, 66, 33, 99, 89, 77, 91, 44, 64, 86, 89, 96, 98, 41, 39, 49, 52
              |21, 10, 59, 104, 34, 41, 76, 19, 53, 44, 71, 39, 36, 82, 60, 64, 62, 11, 34, 79, 78, 68, 61, 63, 57, 39, 84, 63, 39, 56, 62, 93, 53, 80, 66, 83, 14, 16, 80, 51, 39, 78, 86, 85, 86, 78, 43, 103, 8, 69, 19, 80, 60, 46, 51, 17, 41, 47, 12, 74, 12, 73, 27, 55, 42, 62, 45, 105, 56, 91, 23, 89, 28, 91, 65, 82, 67, 39, 57, 73, 91, 90, 46, 9, 8, 1, 35, 86, 60, 13, 69, 15, 79, 85, 61, 55, 11, 71, 75, 69, 32, 32, 66, 101, 38, 30, 77, 7, 93, 74, 30, 66, 14, 72, 85, 33, 83, 21, 111, 88, 55, 47, 69, 74, 60, 77, 74, 41, 91, 93, 60, 74, 73, 87, 49, 65, 73, 23, 51, 64, 55, 62, 78, 76, 64, 29, 30, 74, 60, 75, 108, 56, 15, 81, 44, 67, 103, 22, 66, 68, 17, 38, 28, 95, 63, 25, 62, 92, 52, 55, 49, 10, 34, 30, 62, 45, 73, 43, 24, 61, 103, 15, 86, 80, 85, 71, 19, 85, 50, 44, 45, 70, 79, 31, 95, 52, 50, 56, 74, 40, 68, 97, 22, 21, 71, 82, 45, 24, 44, 46, 86, 58, 94, 84, 58, 90, 64, 103, 59, 19, 101, 98, 97, 41, 96, 42, 50, 45, 54, 57, 33, 57, 82, 57, 52, 50, 17, 53, 9, 67, 62, 20, 48, 73, 61, 43, 74, 26, 47, 29, 57, 66, 20, 5, 77, 40, 43, 75, 63, 8, 68, 78, 28, 77, 86, 56, 49, 94, 27, 58, 74, 46, 45, 57, 71, 74, 35, 59, 96, 71, 21, 51, 6, 103, 51, 30, 85, 73, 61, 88, 37, 47, 72, 72, 85, 84, 29, 32, 43, 35
              |22, 26, 60, 96, 35, 54, 68, 27, 46, 30, 79, 45, 38, 73, 66, 74, 66, 25, 41, 83, 86, 68, 65, 55, 54, 48, 91, 72, 32, 64, 66, 84, 51, 87, 56, 83, 24, 13, 76, 39, 28, 77, 87, 84, 85, 77, 40, 96, 12, 76, 12, 68, 64, 32, 51, 6, 32, 39, 21, 78, 27, 59, 37, 45, 33, 55, 40, 102, 59, 87, 9, 95, 14, 84, 62, 86, 65, 49, 61, 58, 85, 83, 58, 13, 8, 17, 22, 88, 57, 15, 54, 30, 72, 93, 46, 44, 16, 77, 67, 77, 37, 46, 76, 95, 40, 43, 69, 11, 91, 83, 43, 59, 13, 68, 91, 17, 71, 8, 107, 81, 59, 32, 63, 67, 52, 67, 60, 40, 94, 95, 45, 64, 60, 86, 45, 51, 60, 36, 63, 49, 43, 53, 71, 83, 75, 43, 37, 76, 57, 85, 101, 44, 28, 72, 28, 51, 100, 10, 73, 71, 30, 40, 14, 92, 48, 15, 48, 90, 54, 56, 58, 6, 26, 24, 68, 41, 80, 52, 40, 50, 100, 1, 87, 84, 91, 74, 27, 79, 53, 45, 43, 73, 66, 43, 91, 38, 49, 57, 65, 36, 54, 89, 34, 37, 56, 82, 40, 31, 34, 54, 95, 64, 86, 73, 66, 90, 51, 99, 48, 35, 97, 91, 89, 25, 91, 26, 56, 54, 39, 49, 42, 68, 71, 43, 44, 48, 15, 47, 12, 66, 48, 36, 45, 59, 55, 53, 62, 17, 33, 13, 50, 68, 36, 21, 61, 25, 41, 64, 48, 19, 67, 64, 19, 69, 77, 43, 57, 92, 12, 57, 65, 37, 54, 63, 58, 80, 39, 52, 95, 68, 6, 46, 12, 99, 36, 43, 83, 58, 46, 97, 46, 35, 70, 60, 86, 79, 34, 41, 52, 25
              |77, 98, 38, 47, 63, 80, 50, 78, 57, 82, 48, 59, 61, 57, 43, 61, 38, 105, 66, 29, 50, 29, 39, 52, 45, 66, 48, 59, 67, 53, 40, 55, 47, 43, 61, 14, 84, 84, 31, 75, 76, 19, 12, 12, 13, 20, 57, 47, 102, 45, 84, 78, 39, 88, 46, 103, 70, 63, 85, 32, 91, 90, 75, 64, 70, 53, 58, 21, 42, 26, 92, 33, 90, 42, 38, 29, 33, 69, 42, 95, 37, 44, 76, 104, 95, 97, 82, 14, 40, 85, 99, 100, 44, 54, 92, 70, 86, 41, 47, 48, 66, 88, 63, 36, 59, 79, 49, 92, 13, 57, 81, 49, 85, 36, 39, 95, 76, 91, 29, 46, 45, 91, 42, 47, 56, 60, 90, 57, 13, 11, 91, 66, 82, 14, 52, 84, 76, 83, 72, 96, 76, 59, 45, 42, 64, 85, 68, 23, 40, 58, 43, 73, 110, 56, 98, 102, 17, 88, 46, 31, 87, 58, 91, 18, 94, 83, 84, 9, 45, 41, 59, 95, 73, 73, 42, 57, 45, 63, 95, 67, 15, 96, 13, 26, 34, 30, 78, 35, 47, 53, 54, 29, 78, 77, 25, 87, 48, 40, 59, 61, 85, 51, 82, 97, 93, 15, 58, 73, 72, 60, 59, 48, 50, 66, 54, 8, 75, 28, 70, 102, 30, 40, 51, 99, 27, 96, 51, 64, 96, 59, 70, 69, 65, 86, 60, 49, 83, 55, 103, 31, 82, 105, 53, 86, 49, 67, 70, 80, 88, 98, 54, 30, 100, 96, 106, 92, 56, 65, 98, 89, 30, 89, 80, 49, 59, 80, 57, 12, 101, 40, 59, 68, 62, 47, 80, 37, 62, 53, 8, 31, 101, 54, 100, 25, 101, 79, 19, 95, 93, 58, 66, 76, 28, 78, 12, 30, 68, 70, 62, 75
              |28, 49, 48, 70, 31, 65, 41, 37, 22, 5, 76, 44, 33, 45, 60, 76, 57, 51, 44, 74, 84, 53, 57, 30, 34, 53, 88, 74, 14, 63, 59, 57, 34, 82, 28, 65, 38, 25, 53, 11, 4, 60, 72, 67, 66, 59, 25, 69, 40, 72, 21, 40, 55, 11, 38, 33, 9, 16, 36, 69, 46, 34, 46, 18, 9, 29, 22, 80, 51, 64, 20, 86, 15, 58, 41, 77, 46, 56, 53, 35, 60, 57, 68, 41, 33, 41, 6, 73, 39, 29, 34, 53, 46, 91, 24, 16, 32, 72, 42, 74, 38, 62, 79, 70, 35, 54, 43, 33, 71, 83, 56, 34, 27, 45, 85, 17, 43, 21, 84, 54, 53, 14, 39, 41, 26, 39, 35, 29, 79, 80, 23, 35, 33, 66, 28, 25, 33, 50, 70, 28, 15, 26, 45, 78, 78, 58, 40, 62, 39, 85, 75, 16, 55, 44, 19, 33, 79, 19, 69, 60, 46, 34, 16, 70, 27, 15, 22, 71, 44, 43, 59, 31, 12, 16, 62, 25, 76, 55, 59, 22, 79, 29, 72, 73, 83, 64, 37, 55, 45, 37, 29, 62, 39, 53, 68, 15, 34, 44, 37, 22, 28, 62, 47, 58, 33, 67, 22, 38, 7, 56, 94, 61, 59, 45, 66, 71, 23, 75, 19, 58, 72, 65, 62, 20, 68, 17, 52, 57, 22, 23, 49, 74, 43, 19, 19, 33, 25, 24, 40, 49, 22, 60, 28, 33, 32, 59, 34, 15, 12, 21, 26, 54, 58, 44, 42, 13, 29, 36, 29, 38, 51, 38, 13, 43, 49, 16, 57, 71, 25, 43, 37, 11, 57, 59, 30, 73, 38, 28, 75, 48, 28, 25, 39, 76, 24, 54, 62, 35, 25, 96, 50, 7, 51, 32, 69, 56, 36, 47, 54, 8
              |25, 49, 41, 65, 26, 61, 37, 34, 16, 12, 69, 38, 27, 42, 53, 70, 50, 51, 39, 66, 77, 46, 50, 25, 27, 47, 81, 67, 7, 57, 52, 53, 27, 75, 25, 58, 36, 25, 46, 12, 4, 53, 64, 60, 59, 52, 18, 65, 42, 65, 21, 40, 48, 18, 31, 37, 2, 9, 34, 62, 45, 38, 42, 14, 2, 24, 15, 73, 44, 58, 24, 79, 19, 53, 34, 69, 39, 51, 46, 39, 55, 52, 63, 43, 34, 42, 10, 66, 32, 28, 39, 53, 41, 85, 29, 14, 31, 65, 37, 67, 33, 58, 72, 65, 28, 50, 38, 34, 64, 76, 52, 29, 27, 39, 78, 24, 43, 23, 78, 50, 46, 21, 33, 36, 21, 36, 38, 22, 72, 73, 28, 34, 35, 59, 21, 28, 33, 47, 64, 34, 16, 22, 40, 71, 72, 54, 35, 54, 32, 78, 70, 16, 56, 41, 27, 39, 72, 21, 63, 53, 44, 28, 20, 64, 32, 16, 26, 64, 37, 35, 53, 33, 8, 12, 55, 17, 69, 49, 57, 20, 73, 31, 65, 66, 76, 56, 34, 49, 38, 30, 21, 54, 39, 49, 62, 21, 27, 36, 34, 16, 31, 58, 44, 56, 37, 59, 15, 34, 4, 50, 88, 54, 55, 43, 59, 64, 24, 69, 18, 57, 67, 60, 58, 27, 62, 24, 46, 52, 29, 18, 44, 68, 41, 23, 13, 26, 24, 17, 42, 42, 25, 59, 21, 36, 25, 53, 33, 15, 19, 27, 20, 47, 57, 43, 47, 20, 22, 34, 35, 37, 43, 41, 13, 38, 46, 19, 51, 65, 30, 35, 34, 6, 51, 52, 32, 66, 32, 22, 68, 41, 32, 18, 40, 70, 31, 50, 56, 39, 30, 89, 45, 9, 44, 33, 62, 50, 31, 43, 49, 6
              |77, 86, 51, 98, 67, 54, 89, 73, 81, 101, 21, 55, 64, 99, 36, 27, 40, 93, 58, 29, 13, 52, 40, 83, 70, 51, 8, 28, 82, 35, 38, 101, 66, 15, 94, 54, 77, 86, 74, 98, 93, 53, 46, 52, 58, 56, 71, 98, 98, 24, 89, 115, 42, 108, 59, 104, 87, 84, 79, 31, 80, 122, 63, 90, 88, 84, 76, 75, 46, 75, 99, 21, 99, 89, 69, 27, 62, 51, 43, 125, 85, 90, 48, 100, 93, 90, 96, 43, 64, 84, 127, 85, 85, 6, 118, 96, 83, 25, 85, 22, 62, 65, 26, 87, 62, 61, 89, 90, 65, 17, 62, 82, 86, 73, 16, 106, 115, 96, 83, 92, 43, 111, 77, 86, 86, 98, 122, 67, 41, 43, 116, 103, 116, 60, 71, 113, 110, 68, 42, 122, 101, 89, 85, 19, 28, 65, 62, 45, 64, 16, 95, 99, 97, 97, 114, 128, 71, 95, 27, 40, 75, 63, 100, 70, 121, 91, 112, 60, 52, 56, 41, 95, 85, 83, 35, 72, 20, 47, 75, 97, 69, 98, 45, 32, 20, 37, 73, 80, 51, 60, 68, 40, 114, 60, 76, 110, 64, 55, 97, 74, 115, 99, 69, 79, 123, 48, 75, 68, 92, 45, 8, 36, 98, 107, 33, 57, 105, 81, 98, 85, 83, 90, 99, 114, 78, 112, 44, 46, 118, 86, 57, 36, 105, 111, 84, 65, 85, 79, 99, 57, 110, 88, 69, 118, 78, 47, 106, 89, 108, 107, 81, 48, 82, 87, 135, 108, 68, 102, 124, 83, 55, 123, 89, 89, 102, 105, 42, 64, 108, 57, 97, 89, 45, 38, 113, 25, 61, 81, 61, 65, 105, 76, 96, 78, 120, 61, 64, 125, 118, 5, 54, 97, 62, 112, 48, 74, 66, 58, 48, 89
              |40, 61, 54, 64, 42, 77, 37, 49, 25, 8, 84, 54, 43, 39, 68, 86, 64, 62, 55, 80, 92, 58, 64, 29, 38, 64, 96, 83, 23, 72, 67, 50, 39, 90, 23, 68, 50, 37, 52, 6, 15, 63, 75, 70, 68, 62, 33, 64, 51, 80, 33, 29, 63, 9, 46, 43, 18, 21, 48, 76, 58, 22, 58, 17, 16, 28, 28, 78, 58, 62, 30, 92, 25, 54, 43, 83, 49, 67, 61, 23, 57, 52, 79, 51, 44, 53, 17, 77, 43, 41, 23, 65, 43, 100, 13, 11, 44, 80, 39, 83, 49, 74, 88, 67, 44, 66, 39, 45, 71, 92, 67, 33, 39, 45, 92, 24, 32, 31, 82, 49, 62, 12, 39, 38, 25, 32, 23, 38, 83, 84, 12, 27, 22, 67, 34, 13, 22, 62, 81, 18, 6, 23, 42, 85, 88, 70, 51, 66, 43, 94, 70, 9, 66, 38, 20, 23, 78, 30, 78, 66, 58, 44, 25, 70, 16, 27, 10, 72, 52, 49, 69, 42, 23, 27, 70, 32, 84, 66, 71, 16, 79, 39, 76, 79, 89, 70, 49, 53, 53, 45, 36, 68, 28, 65, 66, 6, 40, 50, 30, 31, 16, 56, 59, 70, 21, 70, 29, 49, 13, 66, 103, 69, 53, 36, 75, 73, 13, 72, 13, 70, 70, 61, 56, 22, 66, 19, 62, 68, 15, 22, 60, 84, 35, 7, 22, 39, 37, 27, 51, 53, 10, 71, 35, 21, 33, 69, 25, 27, 9, 29, 27, 59, 70, 55, 31, 16, 37, 28, 19, 50, 55, 26, 25, 39, 42, 4, 67, 72, 33, 48, 30, 16, 67, 67, 19, 80, 48, 28, 76, 50, 37, 30, 50, 74, 20, 66, 63, 23, 14, 105, 61, 7, 53, 21, 73, 55, 47, 59, 65, 20
              |57, 74, 22, 69, 44, 50, 59, 55, 53, 75, 16, 35, 41, 69, 15, 30, 13, 81, 41, 4, 21, 22, 14, 54, 40, 38, 22, 27, 56, 23, 13, 72, 37, 15, 64, 26, 61, 66, 44, 71, 67, 24, 20, 25, 31, 26, 45, 69, 81, 13, 67, 85, 15, 81, 32, 85, 61, 56, 62, 1, 66, 93, 49, 61, 62, 54, 49, 51, 20, 47, 77, 16, 76, 60, 39, 7, 32, 41, 18, 96, 56, 61, 45, 83, 75, 75, 71, 18, 35, 65, 99, 74, 55, 28, 90, 68, 65, 9, 55, 17, 43, 59, 31, 60, 39, 51, 59, 72, 38, 26, 53, 52, 66, 43, 16, 83, 85, 75, 59, 62, 20, 85, 47, 56, 57, 68, 93, 42, 21, 23, 88, 73, 86, 33, 43, 85, 81, 57, 40, 94, 73, 60, 55, 12, 33, 57, 44, 16, 35, 28, 68, 71, 85, 67, 89, 100, 47, 73, 14, 11, 61, 39, 77, 43, 93, 68, 83, 34, 26, 28, 29, 76, 60, 59, 13, 46, 14, 34, 67, 68, 45, 78, 19, 6, 13, 7, 55, 51, 26, 35, 42, 10, 85, 50, 49, 82, 37, 27, 67, 48, 86, 70, 56, 70, 94, 20, 48, 50, 65, 31, 32, 18, 68, 77, 23, 31, 76, 55, 70, 76, 56, 61, 70, 89, 51, 87, 25, 34, 91, 57, 43, 37, 75, 83, 56, 38, 64, 51, 82, 27, 82, 79, 42, 89, 48, 38, 76, 66, 82, 84, 52, 18, 73, 72, 107, 83, 42, 72, 96, 67, 25, 93, 66, 59, 72, 77, 28, 38, 86, 29, 67, 61, 33, 18, 83, 6, 40, 52, 37, 35, 84, 47, 79, 53, 94, 51, 36, 96, 91, 32, 39, 70, 32, 82, 22, 45, 46, 44, 34, 64
              |38, 34, 47, 105, 36, 0, 83, 29, 63, 70, 39, 27, 36, 92, 37, 27, 43, 41, 23, 54, 43, 56, 41, 71, 59, 16, 49, 27, 55, 27, 40, 100, 53, 48, 79, 70, 30, 44, 77, 73, 62, 65, 68, 70, 74, 66, 49, 105, 48, 39, 48, 99, 42, 75, 45, 57, 59, 61, 33, 49, 29, 98, 19, 70, 61, 71, 54, 95, 40, 86, 57, 60, 60, 92, 64, 55, 62, 12, 39, 100, 91, 93, 6, 50, 46, 40, 62, 66, 57, 40, 98, 32, 83, 48, 89, 74, 38, 42, 80, 37, 28, 11, 28, 99, 36, 11, 84, 43, 82, 37, 11, 72, 43, 72, 54, 67, 100, 55, 103, 92, 36, 77, 71, 80, 71, 88, 99, 44, 70, 72, 88, 89, 95, 76, 53, 89, 92, 18, 12, 93, 77, 74, 82, 45, 26, 12, 25, 58, 57, 38, 106, 76, 44, 90, 78, 97, 92, 54, 36, 49, 24, 37, 61, 86, 92, 53, 86, 79, 41, 47, 21, 48, 53, 49, 38, 51, 42, 18, 21, 78, 91, 52, 67, 56, 56, 50, 29, 84, 38, 39, 48, 51, 98, 12, 89, 80, 49, 48, 86, 48, 92, 102, 20, 25, 98, 65, 53, 27, 65, 20, 48, 33, 99, 97, 27, 76, 84, 97, 77, 31, 97, 97, 102, 76, 91, 75, 30, 17, 85, 69, 17, 18, 95, 84, 64, 49, 43, 62, 49, 58, 86, 34, 51, 96, 66, 13, 90, 51, 76, 65, 66, 52, 28, 36, 107, 72, 46, 89, 93, 35, 58, 101, 53, 84, 96, 80, 23, 82, 65, 51, 86, 64, 18, 33, 92, 46, 31, 67, 83, 66, 60, 58, 47, 95, 85, 11, 77, 100, 90, 51, 18, 70, 65, 93, 68, 80, 30, 18, 19, 57
              |18, 44, 27, 66, 11, 48, 39, 25, 16, 27, 54, 23, 12, 47, 38, 55, 35, 48, 25, 52, 61, 34, 35, 26, 19, 33, 66, 52, 8, 41, 37, 57, 16, 60, 32, 48, 29, 23, 42, 26, 19, 43, 53, 50, 50, 42, 5, 65, 42, 50, 22, 51, 34, 34, 17, 41, 13, 13, 28, 48, 38, 52, 30, 22, 15, 26, 8, 68, 29, 53, 30, 65, 28, 53, 27, 55, 30, 36, 31, 54, 53, 52, 49, 44, 34, 39, 22, 54, 22, 25, 54, 47, 41, 69, 45, 26, 27, 50, 37, 52, 19, 47, 57, 63, 13, 38, 40, 32, 56, 61, 40, 29, 24, 34, 63, 35, 53, 28, 73, 51, 31, 37, 30, 37, 25, 42, 52, 7, 60, 61, 43, 42, 48, 51, 11, 42, 45, 37, 50, 49, 30, 27, 40, 56, 57, 43, 22, 42, 22, 63, 69, 29, 53, 45, 41, 54, 66, 26, 47, 39, 35, 12, 29, 58, 48, 21, 40, 56, 22, 22, 37, 34, 11, 11, 39, 6, 54, 34, 48, 30, 66, 34, 53, 52, 61, 42, 25, 47, 23, 14, 8, 41, 50, 37, 57, 36, 14, 23, 40, 1, 45, 60, 34, 48, 52, 48, 7, 22, 19, 35, 72, 38, 57, 50, 44, 55, 36, 65, 30, 51, 63, 60, 60, 40, 58, 38, 30, 37, 44, 22, 30, 53, 49, 39, 17, 13, 22, 16, 43, 32, 39, 53, 10, 49, 23, 39, 43, 18, 34, 36, 20, 34, 50, 39, 63, 34, 7, 42, 50, 32, 32, 54, 18, 40, 51, 34, 36, 57, 39, 23, 40, 17, 36, 36, 45, 51, 17, 22, 60, 34, 39, 13, 40, 65, 46, 38, 48, 54, 45, 74, 30, 24, 35, 45, 51, 46, 18, 29, 34, 15
              |37, 62, 13, 50, 25, 56, 28, 42, 18, 42, 45, 28, 23, 38, 30, 52, 24, 67, 34, 37, 53, 15, 24, 20, 6, 39, 55, 49, 26, 38, 27, 45, 5, 49, 30, 27, 47, 44, 23, 37, 35, 22, 33, 29, 29, 21, 16, 49, 63, 41, 44, 51, 23, 49, 10, 62, 29, 23, 47, 34, 55, 58, 43, 27, 29, 20, 17, 47, 20, 33, 51, 50, 48, 37, 9, 40, 9, 43, 22, 62, 36, 37, 54, 64, 55, 59, 41, 35, 1, 45, 64, 64, 27, 60, 56, 33, 47, 39, 25, 44, 31, 59, 54, 45, 22, 49, 29, 53, 35, 55, 51, 19, 45, 16, 50, 54, 51, 49, 53, 37, 25, 52, 16, 25, 22, 36, 58, 17, 41, 41, 54, 39, 52, 30, 11, 50, 46, 51, 53, 60, 39, 26, 27, 45, 55, 55, 34, 23, 1, 57, 52, 36, 72, 36, 58, 66, 45, 47, 39, 24, 52, 21, 49, 37, 58, 42, 49, 34, 15, 9, 38, 55, 31, 32, 30, 15, 45, 38, 63, 33, 45, 55, 33, 36, 47, 28, 42, 29, 18, 17, 13, 25, 51, 48, 37, 49, 8, 9, 34, 20, 52, 46, 48, 64, 60, 28, 17, 38, 32, 37, 64, 33, 44, 45, 40, 34, 41, 45, 35, 68, 44, 42, 46, 58, 38, 56, 28, 40, 58, 23, 40, 54, 43, 49, 21, 9, 42, 16, 64, 11, 47, 71, 11, 54, 14, 43, 42, 39, 49, 56, 18, 17, 66, 58, 72, 51, 15, 39, 62, 51, 12, 59, 39, 29, 42, 43, 36, 36, 60, 7, 34, 28, 39, 30, 49, 39, 27, 17, 39, 13, 60, 14, 61, 45, 61, 49, 27, 62, 56, 65, 38, 37, 14, 48, 31, 26, 32, 39, 37, 34
              |30, 56, 19, 54, 20, 54, 29, 36, 11, 34, 50, 27, 19, 38, 34, 55, 30, 61, 31, 45, 58, 24, 30, 17, 6, 38, 62, 52, 17, 41, 33, 47, 4, 55, 26, 36, 41, 36, 29, 29, 26, 31, 42, 38, 38, 30, 8, 53, 55, 46, 35, 47, 28, 40, 12, 54, 20, 14, 40, 41, 49, 52, 39, 20, 21, 17, 8, 55, 24, 40, 42, 57, 39, 41, 14, 48, 17, 42, 27, 55, 41, 41, 54, 57, 47, 52, 32, 44, 10, 38, 57, 59, 30, 66, 48, 26, 40, 45, 26, 49, 27, 56, 57, 50, 18, 46, 30, 45, 44, 59, 49, 18, 37, 21, 57, 45, 48, 41, 60, 39, 28, 43, 18, 26, 18, 34, 52, 11, 50, 50, 47, 36, 46, 38, 2, 43, 42, 47, 54, 52, 31, 21, 29, 51, 57, 52, 30, 32, 10, 61, 57, 29, 66, 36, 49, 58, 53, 39, 44, 31, 47, 17, 40, 45, 51, 33, 42, 43, 18, 14, 39, 47, 22, 23, 35, 7, 50, 38, 59, 27, 53, 47, 42, 44, 54, 35, 36, 34, 20, 15, 7, 33, 47, 45, 44, 41, 6, 15, 32, 12, 45, 49, 44, 60, 53, 37, 8, 33, 23, 38, 70, 36, 46, 43, 43, 43, 35, 52, 28, 63, 50, 47, 49, 49, 45, 47, 30, 40, 50, 17, 37, 56, 41, 42, 14, 5, 35, 9, 56, 20, 40, 65, 4, 49, 12, 43, 38, 30, 40, 47, 13, 25, 61, 52, 65, 43, 9, 36, 54, 45, 21, 53, 30, 30, 42, 36, 37, 44, 51, 13, 32, 20, 39, 34, 43, 45, 24, 13, 48, 21, 51, 6, 53, 52, 53, 46, 35, 55, 49, 71, 36, 29, 23, 43, 40, 33, 27, 37, 37, 25
              |92, 117, 59, 22, 80, 106, 43, 96, 62, 85, 79, 81, 78, 45, 70, 91, 64, 122, 87, 61, 83, 50, 65, 53, 55, 90, 81, 89, 76, 81, 67, 37, 59, 75, 57, 37, 101, 97, 32, 75, 81, 41, 42, 37, 32, 39, 69, 22, 116, 75, 96, 65, 64, 90, 64, 114, 76, 69, 101, 63, 110, 81, 96, 65, 76, 54, 68, 12, 66, 21, 101, 66, 97, 27, 47, 61, 46, 94, 67, 86, 24, 29, 103, 118, 108, 113, 88, 45, 53, 99, 92, 119, 38, 87, 88, 70, 101, 72, 42, 79, 85, 112, 93, 14, 76, 102, 42, 106, 24, 88, 104, 49, 99, 40, 72, 101, 63, 100, 4, 32, 70, 92, 45, 43, 57, 50, 80, 72, 46, 44, 87, 57, 73, 30, 63, 78, 67, 104, 99, 90, 74, 58, 39, 74, 95, 108, 88, 49, 53, 90, 15, 71, 127, 45, 100, 96, 16, 98, 76, 58, 106, 76, 98, 20, 89, 93, 80, 29, 65, 60, 85, 108, 82, 84, 70, 68, 76, 88, 117, 65, 18, 107, 43, 58, 67, 59, 96, 29, 68, 71, 67, 56, 66, 100, 17, 86, 62, 59, 51, 73, 78, 30, 102, 118, 85, 42, 68, 92, 76, 85, 92, 75, 31, 52, 82, 32, 70, 9, 68, 122, 11, 20, 30, 102, 16, 99, 76, 89, 95, 61, 92, 98, 52, 83, 64, 63, 96, 61, 117, 48, 78, 125, 65, 77, 53, 93, 61, 90, 89, 104, 58, 53, 120, 113, 97, 95, 69, 56, 93, 106, 48, 78, 89, 42, 44, 78, 83, 25, 108, 57, 51, 72, 88, 73, 72, 68, 81, 56, 26, 42, 110, 62, 114, 10, 100, 102, 29, 86, 89, 91, 89, 78, 41, 69, 41, 29, 86, 92, 87, 83
              |71, 97, 51, 14, 63, 96, 15, 78, 38, 56, 81, 69, 62, 12, 67, 90, 60, 101, 74, 66, 87, 46, 61, 28, 37, 79, 88, 87, 52, 77, 64, 6, 43, 81, 27, 43, 82, 75, 22, 46, 55, 42, 52, 44, 39, 40, 50, 13, 93, 76, 72, 32, 60, 59, 51, 88, 51, 44, 82, 66, 91, 48, 82, 38, 49, 29, 46, 36, 59, 23, 75, 76, 70, 8, 32, 69, 36, 84, 61, 53, 13, 6, 95, 94, 85, 92, 61, 55, 39, 77, 59, 100, 13, 94, 55, 40, 80, 74, 17, 80, 70, 99, 92, 19, 61, 89, 14, 84, 36, 91, 91, 25, 76, 25, 80, 73, 30, 75, 36, 4, 64, 62, 25, 17, 30, 18, 47, 54, 59, 58, 55, 25, 40, 37, 44, 46, 34, 89, 93, 58, 44, 30, 14, 78, 93, 95, 73, 51, 39, 93, 21, 41, 106, 13, 70, 63, 38, 73, 76, 57, 89, 60, 71, 32, 57, 68, 48, 40, 55, 49, 78, 84, 57, 61, 67, 48, 79, 79, 101, 34, 39, 83, 52, 64, 76, 60, 78, 16, 58, 57, 49, 57, 33, 88, 25, 55, 47, 49, 20, 52, 45, 6, 87, 102, 52, 48, 47, 75, 49, 77, 98, 71, 4, 19, 79, 43, 38, 27, 38, 105, 24, 13, 6, 72, 23, 69, 68, 81, 63, 34, 80, 94, 19, 52, 39, 47, 74, 38, 94, 41, 46, 107, 46, 44, 31, 84, 28, 66, 59, 77, 34, 50, 103, 92, 64, 66, 52, 24, 61, 85, 42, 45, 64, 14, 11, 47, 76, 37, 81, 46, 20, 46, 80, 69, 39, 72, 66, 32, 42, 32, 84, 41, 92, 30, 69, 89, 32, 53, 56, 98, 78, 50, 35, 36, 49, 21, 70, 79, 78, 57
              |37, 11, 71, 120, 47, 39, 93, 31, 70, 62, 76, 49, 50, 100, 68, 66, 72, 8, 43, 87, 81, 80, 71, 80, 73, 45, 87, 65, 56, 62, 70, 111, 68, 85, 84, 96, 26, 34, 96, 70, 58, 90, 97, 97, 99, 91, 59, 120, 21, 75, 38, 98, 70, 64, 64, 32, 59, 64, 26, 82, 18, 92, 34, 72, 61, 79, 62, 119, 66, 106, 41, 96, 46, 107, 81, 89, 81, 43, 67, 91, 107, 107, 45, 22, 26, 17, 53, 97, 74, 31, 87, 9, 95, 87, 79, 73, 28, 77, 92, 74, 43, 28, 67, 117, 51, 33, 94, 26, 107, 76, 31, 83, 32, 88, 91, 50, 101, 39, 126, 105, 64, 65, 85, 91, 78, 94, 93, 56, 102, 103, 78, 92, 92, 101, 65, 83, 91, 26, 51, 82, 73, 80, 95, 82, 65, 28, 40, 86, 74, 77, 124, 74, 6, 98, 61, 84, 117, 40, 72, 78, 22, 52, 46, 109, 81, 43, 80, 105, 64, 68, 55, 28, 51, 48, 70, 61, 78, 49, 18, 79, 116, 32, 97, 89, 92, 80, 31, 101, 62, 57, 60, 80, 97, 34, 110, 70, 65, 69, 92, 56, 86, 114, 27, 14, 89, 93, 61, 36, 63, 52, 87, 65, 112, 102, 63, 103, 82, 118, 77, 8, 117, 114, 114, 58, 111, 59, 59, 49, 72, 75, 40, 57, 100, 76, 69, 64, 35, 70, 21, 80, 80, 5, 63, 91, 77, 47, 92, 44, 65, 46, 74, 78, 11, 16, 94, 58, 58, 93, 81, 22, 81, 96, 46, 94, 104, 75, 55, 107, 44, 71, 92, 64, 50, 65, 89, 81, 47, 76, 109, 86, 37, 67, 21, 117, 68, 33, 99, 91, 79, 90, 44, 65, 86, 91, 96, 99, 41, 39, 49, 53
              |22, 45, 43, 70, 25, 59, 41, 31, 20, 11, 70, 38, 27, 46, 54, 70, 51, 48, 38, 68, 77, 48, 51, 29, 30, 46, 82, 67, 8, 57, 53, 57, 29, 76, 29, 61, 33, 21, 50, 15, 3, 56, 67, 63, 62, 55, 20, 69, 37, 66, 17, 44, 50, 18, 33, 33, 5, 13, 31, 64, 41, 40, 40, 18, 6, 28, 17, 77, 45, 61, 19, 80, 15, 57, 38, 71, 42, 49, 47, 41, 59, 56, 61, 39, 30, 38, 7, 68, 35, 25, 40, 49, 45, 85, 30, 18, 27, 66, 41, 68, 32, 56, 72, 69, 28, 48, 43, 30, 67, 77, 50, 33, 23, 42, 79, 20, 46, 19, 82, 54, 47, 21, 37, 40, 26, 40, 41, 23, 75, 75, 29, 38, 38, 63, 23, 30, 36, 45, 63, 34, 19, 26, 44, 72, 72, 52, 34, 57, 35, 79, 74, 19, 52, 45, 25, 39, 76, 17, 63, 55, 41, 28, 16, 68, 33, 12, 28, 68, 38, 37, 52, 29, 6, 9, 56, 19, 70, 49, 54, 24, 76, 27, 67, 68, 77, 58, 31, 53, 39, 31, 23, 56, 43, 47, 66, 21, 29, 38, 38, 17, 33, 62, 42, 53, 39, 62, 17, 32, 8, 50, 88, 54, 59, 47, 59, 67, 27, 73, 22, 54, 71, 65, 62, 25, 66, 22, 46, 51, 28, 22, 42, 67, 45, 25, 17, 28, 20, 21, 38, 45, 27, 56, 23, 38, 29, 52, 37, 11, 18, 23, 24, 49, 53, 40, 48, 18, 23, 38, 35, 34, 46, 43, 9, 43, 50, 21, 51, 68, 27, 38, 38, 10, 51, 52, 35, 67, 31, 26, 72, 45, 28, 21, 36, 74, 30, 48, 59, 41, 31, 90, 44, 11, 47, 36, 65, 54, 30, 41, 48, 2
              |28, 52, 41, 63, 28, 63, 34, 37, 14, 11, 70, 40, 29, 39, 54, 72, 51, 55, 41, 67, 78, 46, 50, 22, 26, 50, 82, 69, 9, 58, 53, 50, 27, 76, 22, 57, 39, 28, 45, 9, 6, 52, 64, 59, 58, 51, 19, 62, 45, 66, 25, 37, 49, 18, 32, 40, 4, 8, 37, 63, 48, 35, 45, 11, 2, 21, 15, 72, 44, 56, 26, 79, 22, 50, 33, 70, 38, 53, 47, 37, 52, 49, 65, 46, 37, 45, 13, 66, 32, 31, 37, 56, 39, 86, 28, 11, 34, 66, 34, 69, 35, 61, 74, 63, 30, 53, 36, 37, 63, 78, 55, 26, 30, 37, 79, 25, 40, 26, 76, 47, 48, 21, 31, 33, 19, 33, 36, 23, 72, 72, 26, 30, 32, 58, 21, 26, 30, 50, 67, 32, 13, 19, 38, 72, 74, 57, 38, 54, 32, 80, 68, 13, 59, 38, 27, 37, 71, 24, 64, 53, 47, 29, 22, 62, 30, 19, 23, 63, 38, 36, 55, 36, 11, 15, 56, 18, 70, 51, 60, 17, 71, 34, 64, 66, 76, 57, 37, 47, 39, 31, 22, 55, 36, 52, 60, 19, 27, 37, 31, 17, 28, 55, 47, 60, 35, 59, 15, 36, 1, 52, 89, 55, 52, 40, 61, 63, 21, 67, 15, 61, 64, 58, 55, 28, 60, 25, 47, 54, 28, 15, 46, 70, 38, 21, 11, 26, 27, 16, 45, 42, 22, 62, 21, 33, 24, 55, 30, 18, 18, 29, 18, 47, 60, 46, 46, 21, 23, 31, 33, 40, 43, 38, 16, 36, 43, 17, 53, 63, 33, 35, 31, 3, 53, 53, 29, 67, 34, 20, 67, 40, 35, 17, 44, 68, 31, 53, 54, 37, 28, 91, 47, 7, 43, 30, 62, 48, 34, 45, 51, 9
              |66, 89, 28, 39, 53, 74, 37, 69, 44, 69, 47, 51, 50, 45, 38, 60, 32, 95, 57, 30, 52, 19, 33, 39, 32, 59, 51, 57, 55, 49, 35, 45, 34, 45, 48, 5, 74, 73, 19, 62, 63, 9, 13, 6, 0, 9, 45, 39, 91, 44, 73, 65, 33, 75, 36, 91, 57, 50, 74, 31, 82, 77, 67, 50, 57, 40, 46, 21, 35, 17, 80, 38, 77, 31, 25, 31, 20, 63, 35, 82, 27, 33, 71, 93, 84, 87, 69, 16, 28, 74, 86, 91, 31, 57, 79, 57, 75, 40, 34, 48, 56, 81, 61, 29, 49, 72, 37, 81, 8, 57, 74, 35, 74, 23, 43, 82, 64, 79, 29, 35, 39, 78, 29, 34, 43, 47, 76, 46, 20, 19, 77, 53, 69, 2, 40, 71, 63, 75, 68, 82, 62, 46, 32, 43, 63, 78, 59, 17, 28, 59, 37, 59, 100, 44, 85, 89, 18, 76, 44, 26, 78, 48, 78, 12, 81, 71, 71, 5, 35, 31, 53, 84, 60, 61, 38, 44, 45, 57, 87, 54, 17, 84, 14, 27, 38, 27, 69, 23, 38, 43, 42, 24, 65, 70, 18, 74, 36, 30, 47, 49, 72, 41, 73, 89, 80, 11, 46, 64, 59, 54, 62, 43, 40, 54, 50, 5, 61, 24, 57, 94, 25, 31, 41, 86, 20, 83, 44, 58, 83, 46, 62, 66, 53, 73, 47, 37, 71, 42, 92, 19, 69, 97, 41, 73, 35, 61, 57, 68, 75, 85, 41, 22, 91, 86, 93, 79, 44, 52, 85, 79, 19, 76, 68, 37, 47, 66, 52, 8, 88, 29, 47, 55, 56, 42, 67, 37, 52, 39, 10, 18, 89, 41, 89, 22, 87, 72, 6, 82, 80, 62, 59, 63, 15, 65, 10, 18, 58, 62, 56, 63
              |53, 58, 39, 96, 45, 26, 80, 47, 66, 81, 15, 32, 43, 90, 23, 1, 30, 65, 33, 33, 17, 45, 29, 71, 57, 25, 23, 3, 63, 14, 26, 96, 51, 23, 81, 55, 50, 61, 69, 80, 72, 52, 50, 54, 60, 54, 53, 96, 71, 17, 64, 102, 30, 87, 43, 78, 68, 66, 53, 30, 52, 105, 36, 74, 69, 71, 58, 80, 32, 75, 75, 36, 76, 85, 59, 34, 54, 24, 29, 108, 82, 86, 20, 73, 67, 63, 74, 48, 52, 59, 108, 57, 78, 22, 99, 79, 57, 21, 76, 14, 38, 37, 3, 88, 41, 33, 80, 64, 68, 11, 34, 71, 60, 65, 29, 83, 103, 72, 89, 86, 27, 90, 67, 76, 72, 87, 106, 48, 50, 52, 98, 90, 101, 62, 55, 96, 96, 41, 14, 103, 84, 76, 78, 21, 3, 37, 37, 43, 52, 12, 96, 82, 69, 88, 92, 109, 77, 71, 16, 34, 47, 42, 77, 72, 102, 68, 94, 63, 37, 42, 17, 69, 64, 61, 23, 55, 18, 22, 47, 82, 75, 72, 49, 36, 32, 33, 47, 76, 35, 41, 51, 36, 101, 33, 77, 90, 49, 42, 86, 54, 99, 95, 41, 51, 106, 49, 57, 43, 73, 20, 22, 19, 93, 97, 11, 60, 89, 84, 82, 57, 85, 88, 95, 91, 79, 89, 25, 20, 98, 72, 31, 9, 95, 93, 68, 49, 60, 64, 72, 49, 93, 60, 53, 103, 65, 20, 93, 65, 88, 82, 67, 41, 54, 59, 117, 86, 49, 90, 104, 56, 48, 107, 67, 80, 94, 88, 18, 67, 83, 45, 86, 70, 19, 21, 98, 25, 38, 67, 66, 58, 80, 60, 69, 82, 98, 33, 64, 108, 100, 25, 28, 78, 56, 97, 51, 71, 41, 32, 22, 68
              |50, 56, 38, 95, 42, 25, 78, 44, 64, 79, 16, 30, 40, 89, 22, 3, 29, 63, 31, 33, 19, 44, 28, 69, 55, 23, 25, 3, 61, 12, 25, 94, 50, 24, 79, 54, 48, 59, 68, 78, 70, 51, 50, 54, 59, 53, 51, 95, 69, 17, 62, 100, 29, 85, 41, 76, 66, 64, 51, 30, 50, 104, 34, 72, 67, 70, 56, 80, 30, 74, 72, 37, 74, 84, 58, 34, 53, 22, 28, 106, 81, 85, 19, 71, 65, 61, 72, 48, 51, 56, 106, 55, 76, 24, 97, 78, 55, 21, 75, 14, 36, 35, 5, 87, 39, 31, 79, 61, 67, 13, 32, 69, 58, 64, 30, 81, 101, 70, 88, 85, 25, 88, 66, 75, 71, 86, 104, 46, 50, 52, 96, 89, 99, 61, 53, 94, 94, 38, 13, 101, 82, 74, 77, 22, 4, 35, 35, 42, 51, 14, 95, 80, 67, 87, 90, 107, 76, 69, 16, 34, 45, 40, 74, 72, 100, 66, 92, 63, 35, 41, 15, 66, 62, 59, 22, 53, 18, 19, 45, 80, 75, 70, 49, 36, 33, 33, 44, 75, 33, 39, 49, 35, 100, 30, 77, 88, 47, 41, 84, 52, 97, 94, 39, 49, 104, 49, 56, 40, 71, 18, 25, 18, 92, 95, 10, 60, 87, 84, 81, 55, 84, 87, 94, 89, 78, 87, 23, 17, 96, 70, 29, 8, 93, 91, 66, 48, 57, 62, 70, 48, 91, 58, 51, 101, 64, 18, 91, 63, 86, 80, 66, 40, 52, 57, 115, 84, 48, 89, 102, 54, 47, 106, 65, 79, 92, 86, 16, 67, 81, 44, 84, 69, 17, 20, 96, 25, 36, 66, 66, 57, 77, 58, 67, 81, 96, 31, 63, 106, 98, 27, 26, 76, 55, 95, 51, 70, 39, 30, 20, 66
              |54, 66, 29, 82, 43, 38, 68, 50, 58, 77, 4, 31, 40, 79, 13, 16, 18, 73, 35, 17, 11, 32, 17, 61, 47, 30, 16, 14, 59, 13, 14, 83, 43, 11, 72, 39, 55, 63, 56, 75, 69, 37, 34, 39, 45, 39, 48, 82, 76, 1, 65, 93, 19, 84, 35, 82, 63, 60, 57, 14, 59, 99, 42, 67, 65, 62, 52, 65, 23, 60, 76, 22, 76, 72, 48, 18, 42, 32, 20, 102, 68, 73, 33, 78, 71, 69, 72, 32, 42, 61, 103, 66, 66, 19, 94, 73, 61, 4, 65, 3, 39, 48, 17, 73, 38, 42, 69, 68, 52, 13, 43, 60, 63, 53, 16, 83, 93, 73, 73, 73, 19, 87, 56, 65, 64, 77, 99, 44, 34, 36, 93, 81, 93, 47, 47, 90, 88, 49, 28, 98, 78, 67, 66, 7, 19, 47, 40, 28, 42, 16, 81, 76, 78, 77, 91, 104, 61, 72, 3, 20, 54, 39, 77, 57, 97, 68, 88, 48, 29, 33, 20, 72, 61, 59, 11, 49, 4, 26, 58, 74, 59, 75, 33, 20, 17, 18, 50, 63, 28, 36, 45, 21, 92, 41, 62, 86, 41, 32, 76, 50, 92, 82, 48, 61, 100, 34, 52, 46, 68, 23, 23, 12, 80, 86, 11, 45, 82, 69, 75, 67, 69, 74, 82, 90, 64, 88, 21, 25, 94, 64, 36, 24, 84, 88, 61, 42, 61, 56, 77, 36, 87, 70, 46, 95, 56, 28, 84, 65, 84, 83, 59, 28, 64, 66, 112, 84, 44, 81, 100, 61, 35, 100, 66, 69, 82, 82, 20, 51, 85, 35, 76, 65, 24, 14, 90, 9, 37, 59, 51, 45, 82, 52, 74, 66, 96, 42, 49, 102, 95, 24, 32, 74, 43, 89, 35, 57, 42, 37, 26, 65
              |76, 102, 55, 11, 67, 100, 19, 83, 42, 60, 84, 73, 66, 15, 71, 94, 64, 106, 78, 70, 90, 49, 65, 32, 42, 84, 91, 91, 56, 81, 68, 5, 48, 84, 31, 45, 87, 79, 25, 50, 59, 45, 54, 47, 41, 43, 54, 10, 97, 80, 77, 34, 64, 63, 55, 93, 55, 48, 86, 69, 96, 50, 86, 42, 54, 33, 51, 36, 63, 25, 79, 79, 74, 10, 36, 72, 40, 88, 65, 55, 14, 8, 99, 98, 89, 96, 65, 57, 44, 82, 62, 105, 18, 97, 58, 44, 84, 77, 21, 84, 74, 103, 96, 18, 65, 93, 18, 88, 38, 94, 96, 30, 81, 29, 83, 77, 31, 79, 34, 8, 68, 65, 29, 21, 35, 21, 49, 58, 61, 60, 58, 28, 42, 39, 49, 49, 37, 94, 97, 60, 48, 34, 18, 81, 97, 99, 77, 54, 44, 97, 18, 45, 110, 16, 73, 66, 38, 77, 80, 61, 93, 65, 75, 33, 60, 72, 51, 42, 59, 53, 82, 89, 62, 65, 71, 52, 83, 83, 106, 38, 40, 87, 55, 67, 79, 63, 83, 19, 63, 61, 54, 60, 35, 92, 26, 59, 51, 53, 23, 57, 48, 2, 91, 106, 54, 51, 51, 80, 53, 82, 102, 75, 1, 21, 83, 45, 41, 27, 41, 109, 24, 13, 2, 76, 24, 73, 72, 85, 66, 38, 84, 98, 21, 55, 43, 51, 78, 42, 98, 45, 49, 112, 51, 46, 35, 88, 31, 70, 63, 81, 38, 53, 108, 97, 66, 70, 56, 27, 64, 90, 46, 47, 69, 18, 13, 50, 80, 39, 85, 50, 23, 50, 84, 73, 42, 75, 71, 36, 43, 36, 88, 45, 96, 30, 72, 93, 35, 55, 59, 102, 82, 54, 38, 39, 51, 24, 74, 84, 82, 62
              |51, 76, 19, 40, 39, 66, 26, 55, 28, 53, 47, 40, 37, 36, 34, 57, 27, 81, 46, 34, 54, 12, 28, 24, 16, 50, 55, 54, 39, 44, 31, 39, 19, 48, 34, 16, 60, 58, 12, 46, 47, 12, 24, 18, 16, 10, 30, 39, 77, 43, 57, 53, 27, 59, 23, 76, 41, 34, 61, 33, 69, 63, 55, 35, 41, 25, 30, 33, 27, 20, 64, 45, 61, 28, 9, 37, 5, 54, 28, 68, 25, 29, 64, 78, 69, 73, 53, 26, 13, 59, 71, 78, 22, 61, 64, 41, 61, 41, 22, 47, 44, 71, 59, 33, 35, 61, 26, 67, 22, 57, 63, 21, 59, 10, 48, 66, 52, 63, 40, 29, 32, 62, 15, 23, 28, 35, 63, 31, 32, 32, 62, 41, 56, 16, 24, 56, 50, 63, 61, 67, 47, 31, 22, 45, 60, 67, 47, 18, 13, 59, 40, 44, 86, 34, 69, 74, 31, 61, 42, 24, 65, 35, 62, 23, 66, 55, 56, 21, 25, 19, 46, 69, 44, 46, 34, 29, 46, 48, 76, 39, 31, 69, 24, 32, 44, 27, 55, 19, 28, 30, 27, 23, 53, 60, 24, 58, 22, 18, 35, 34, 58, 38, 61, 77, 66, 19, 30, 51, 43, 46, 65, 38, 36, 44, 46, 21, 47, 32, 42, 81, 31, 32, 38, 70, 25, 67, 36, 50, 67, 30, 52, 61, 42, 58, 31, 22, 56, 26, 77, 8, 54, 84, 25, 59, 20, 53, 45, 52, 59, 69, 25, 16, 79, 72, 79, 63, 29, 40, 70, 65, 9, 63, 52, 26, 39, 51, 44, 22, 73, 16, 35, 39, 48, 36, 54, 39, 40, 24, 25, 2, 73, 25, 75, 31, 72, 61, 13, 68, 65, 65, 49, 47, 1, 52, 21, 15, 45, 51, 47, 47
              |63, 73, 39, 90, 53, 42, 78, 59, 69, 88, 7, 41, 50, 89, 23, 15, 28, 80, 44, 22, 1, 41, 28, 72, 58, 37, 7, 15, 69, 21, 25, 92, 53, 8, 82, 47, 63, 72, 65, 86, 79, 45, 40, 46, 52, 48, 58, 91, 84, 11, 75, 103, 29, 94, 46, 90, 74, 71, 66, 21, 66, 109, 49, 77, 75, 72, 63, 71, 33, 68, 85, 21, 85, 81, 58, 22, 52, 38, 30, 113, 77, 82, 36, 86, 79, 77, 82, 37, 52, 70, 114, 72, 75, 9, 105, 84, 69, 13, 75, 9, 48, 53, 15, 81, 49, 48, 79, 76, 59, 6, 49, 71, 72, 63, 13, 93, 103, 82, 79, 83, 30, 97, 66, 75, 74, 87, 109, 54, 38, 40, 103, 91, 104, 54, 58, 101, 98, 55, 30, 109, 88, 78, 76, 9, 17, 52, 48, 36, 52, 8, 89, 86, 84, 87, 101, 115, 67, 81, 13, 30, 61, 49, 86, 64, 108, 77, 99, 54, 40, 44, 28, 81, 71, 69, 22, 59, 8, 34, 63, 85, 65, 84, 39, 25, 17, 27, 59, 72, 38, 46, 55, 30, 103, 47, 70, 96, 52, 43, 86, 60, 103, 91, 55, 66, 110, 41, 62, 54, 79, 31, 12, 22, 89, 96, 19, 51, 92, 76, 86, 72, 77, 82, 91, 100, 72, 98, 31, 32, 105, 74, 44, 25, 94, 98, 72, 52, 71, 67, 85, 46, 98, 76, 57, 106, 66, 34, 94, 75, 95, 93, 69, 38, 69, 73, 122, 94, 55, 91, 110, 69, 45, 111, 76, 79, 92, 93, 28, 58, 94, 45, 86, 76, 31, 24, 101, 15, 47, 69, 57, 55, 91, 63, 82, 73, 106, 48, 57, 113, 105, 13, 40, 84, 52, 100, 42, 66, 52, 45, 34, 75
              |67, 93, 47, 18, 58, 92, 11, 74, 34, 52, 77, 64, 57, 10, 64, 87, 57, 97, 69, 64, 84, 42, 58, 24, 33, 75, 85, 83, 48, 73, 61, 9, 39, 78, 24, 40, 78, 70, 19, 42, 50, 39, 49, 42, 37, 37, 45, 17, 89, 73, 68, 31, 56, 56, 47, 84, 47, 40, 77, 63, 87, 46, 77, 33, 45, 24, 42, 36, 55, 22, 71, 74, 66, 8, 28, 66, 32, 79, 57, 51, 13, 6, 91, 90, 81, 87, 57, 52, 35, 73, 57, 96, 9, 90, 53, 37, 75, 71, 12, 77, 65, 94, 89, 21, 57, 84, 9, 80, 35, 87, 87, 21, 72, 21, 77, 69, 29, 71, 37, 3, 60, 58, 20, 13, 26, 15, 45, 49, 57, 56, 52, 22, 38, 35, 40, 43, 32, 85, 89, 55, 40, 26, 9, 75, 89, 90, 69, 48, 35, 89, 24, 38, 102, 10, 66, 61, 38, 69, 72, 54, 85, 56, 67, 31, 54, 64, 45, 39, 51, 45, 74, 80, 53, 56, 64, 43, 76, 75, 97, 31, 39, 78, 50, 61, 73, 57, 74, 13, 54, 52, 45, 53, 32, 83, 25, 52, 42, 45, 16, 48, 43, 11, 82, 98, 50, 46, 43, 71, 45, 73, 95, 67, 8, 18, 75, 41, 35, 28, 34, 100, 25, 15, 11, 68, 23, 65, 64, 76, 60, 30, 75, 90, 18, 49, 35, 42, 69, 33, 89, 38, 43, 103, 42, 42, 26, 80, 26, 62, 56, 73, 29, 46, 99, 88, 62, 62, 47, 21, 58, 81, 39, 44, 60, 9, 11, 43, 72, 36, 77, 42, 16, 42, 75, 65, 37, 69, 62, 27, 41, 29, 80, 36, 87, 31, 66, 84, 30, 51, 54, 95, 74, 46, 31, 34, 47, 19, 66, 75, 74, 53
              |72, 94, 33, 49, 59, 75, 49, 74, 55, 80, 43, 55, 56, 57, 38, 56, 33, 100, 61, 24, 46, 25, 34, 51, 42, 61, 44, 54, 64, 48, 35, 56, 43, 38, 60, 11, 79, 81, 31, 73, 73, 16, 7, 9, 12, 17, 53, 49, 98, 40, 81, 77, 34, 86, 42, 99, 67, 60, 80, 27, 86, 89, 70, 62, 67, 52, 55, 25, 38, 27, 89, 29, 86, 43, 36, 25, 30, 64, 37, 94, 38, 45, 71, 100, 91, 93, 79, 9, 37, 81, 97, 95, 44, 50, 90, 68, 82, 36, 46, 43, 61, 83, 58, 38, 54, 74, 49, 88, 15, 52, 76, 47, 81, 35, 35, 92, 76, 87, 33, 47, 41, 89, 41, 47, 54, 59, 89, 53, 9, 8, 89, 66, 81, 13, 49, 83, 75, 78, 67, 94, 73, 57, 44, 37, 60, 80, 64, 18, 37, 54, 46, 71, 105, 56, 95, 100, 21, 85, 41, 26, 82, 54, 87, 20, 93, 80, 83, 10, 40, 37, 54, 91, 69, 70, 37, 53, 40, 58, 90, 66, 19, 92, 8, 21, 30, 25, 74, 35, 42, 49, 50, 24, 77, 73, 27, 85, 44, 36, 59, 57, 84, 52, 77, 93, 92, 11, 55, 69, 69, 55, 55, 43, 52, 66, 49, 8, 73, 32, 68, 98, 33, 42, 52, 96, 30, 93, 46, 59, 94, 57, 65, 64, 65, 84, 58, 45, 79, 52, 99, 27, 81, 101, 49, 85, 46, 62, 69, 77, 86, 94, 52, 26, 95, 91, 105, 89, 52, 65, 96, 85, 26, 88, 76, 49, 59, 78, 52, 14, 97, 36, 59, 65, 57, 42, 79, 32, 57, 50, 11, 29, 97, 51, 96, 28, 98, 74, 18, 94, 91, 54, 61, 74, 25, 77, 8, 30, 64, 65, 57, 72
              |95, 120, 63, 20, 83, 110, 45, 100, 65, 87, 84, 85, 81, 45, 75, 96, 68, 125, 91, 66, 88, 54, 69, 55, 58, 94, 86, 94, 78, 86, 72, 36, 63, 80, 59, 42, 105, 100, 35, 77, 84, 45, 47, 42, 37, 44, 72, 21, 119, 80, 99, 65, 69, 91, 68, 117, 79, 71, 105, 67, 113, 81, 100, 67, 78, 56, 71, 17, 70, 25, 104, 71, 99, 28, 50, 66, 50, 98, 71, 86, 25, 30, 107, 121, 111, 116, 90, 50, 57, 102, 92, 122, 39, 92, 88, 72, 104, 77, 44, 84, 89, 116, 98, 15, 80, 106, 43, 109, 29, 93, 108, 51, 102, 43, 77, 103, 62, 103, 9, 33, 75, 94, 47, 45, 59, 51, 80, 75, 51, 49, 87, 58, 73, 35, 67, 79, 67, 108, 104, 91, 76, 60, 40, 79, 99, 112, 92, 54, 57, 95, 13, 73, 130, 46, 102, 97, 21, 101, 81, 63, 110, 79, 100, 24, 90, 95, 80, 34, 69, 64, 89, 111, 84, 87, 74, 71, 81, 92, 121, 66, 23, 110, 48, 63, 72, 64, 100, 31, 72, 75, 71, 61, 66, 105, 21, 87, 66, 63, 52, 76, 79, 29, 106, 122, 85, 47, 71, 96, 78, 90, 97, 79, 31, 52, 87, 36, 71, 13, 69, 126, 14, 21, 29, 103, 20, 100, 80, 93, 96, 63, 97, 103, 52, 84, 67, 66, 99, 64, 120, 52, 78, 129, 68, 77, 55, 97, 61, 93, 91, 106, 61, 58, 124, 116, 97, 97, 73, 57, 94, 109, 52, 78, 92, 43, 44, 79, 88, 30, 110, 61, 52, 75, 92, 78, 72, 73, 85, 58, 31, 45, 113, 65, 117, 15, 101, 106, 34, 86, 89, 96, 93, 80, 45, 69, 46, 32, 90, 96, 91, 85
              |33, 38, 35, 93, 27, 13, 71, 26, 53, 63, 30, 16, 26, 81, 25, 22, 30, 45, 14, 43, 36, 43, 29, 60, 47, 5, 42, 20, 46, 16, 28, 89, 41, 39, 69, 57, 29, 41, 65, 64, 55, 53, 56, 58, 62, 54, 39, 92, 50, 29, 44, 89, 29, 69, 33, 57, 51, 51, 32, 38, 31, 90, 15, 60, 53, 60, 44, 83, 27, 73, 54, 50, 56, 80, 52, 45, 49, 3, 27, 92, 78, 81, 11, 52, 46, 42, 56, 55, 45, 38, 91, 37, 71, 42, 82, 65, 36, 32, 68, 28, 20, 20, 24, 86, 26, 13, 72, 43, 70, 32, 15, 61, 40, 59, 45, 63, 90, 51, 91, 80, 23, 71, 59, 68, 60, 77, 91, 34, 59, 61, 81, 79, 86, 64, 42, 81, 83, 20, 12, 86, 68, 64, 71, 36, 22, 18, 18, 45, 45, 33, 94, 67, 49, 79, 73, 91, 80, 50, 26, 37, 26, 27, 57, 74, 85, 48, 78, 66, 29, 35, 9, 47, 46, 42, 26, 41, 33, 5, 29, 68, 79, 51, 55, 45, 46, 38, 26, 72, 26, 28, 37, 39, 88, 12, 77, 73, 38, 35, 75, 39, 83, 90, 20, 32, 90, 53, 43, 22, 56, 8, 43, 21, 87, 86, 17, 64, 75, 85, 68, 38, 84, 85, 90, 71, 78, 70, 17, 4, 79, 59, 10, 16, 84, 76, 54, 38, 39, 51, 51, 46, 77, 41, 40, 88, 55, 1, 80, 46, 70, 62, 55, 40, 35, 38, 100, 67, 36, 79, 87, 35, 45, 93, 48, 72, 85, 72, 11, 70, 63, 38, 75, 55, 6, 21, 83, 36, 21, 56, 70, 54, 59, 47, 48, 83, 79, 13, 64, 92, 82, 46, 8, 62, 53, 83, 56, 68, 22, 11, 6, 50
              |91, 116, 61, 11, 80, 109, 38, 96, 59, 80, 85, 83, 78, 37, 75, 97, 68, 121, 89, 68, 90, 53, 69, 49, 54, 93, 89, 95, 73, 86, 72, 27, 59, 83, 51, 43, 101, 96, 32, 70, 77, 46, 50, 44, 38, 44, 68, 12, 114, 81, 94, 56, 69, 84, 65, 111, 73, 66, 101, 69, 110, 72, 97, 61, 72, 50, 66, 22, 69, 23, 98, 75, 93, 21, 47, 69, 47, 97, 71, 77, 20, 22, 107, 116, 106, 112, 84, 53, 54, 98, 84, 119, 33, 95, 80, 64, 100, 78, 37, 85, 86, 114, 99, 10, 77, 104, 36, 105, 31, 95, 106, 46, 97, 39, 80, 96, 53, 97, 16, 25, 74, 86, 42, 38, 53, 43, 71, 71, 55, 53, 79, 49, 64, 36, 62, 71, 59, 106, 104, 82, 68, 53, 34, 81, 100, 110, 89, 55, 54, 97, 4, 65, 126, 37, 94, 88, 26, 95, 82, 63, 107, 76, 94, 26, 82, 90, 72, 36, 68, 62, 89, 106, 79, 81, 75, 67, 83, 91, 118, 59, 28, 105, 51, 65, 75, 65, 96, 26, 71, 72, 67, 62, 57, 102, 20, 80, 62, 61, 44, 71, 70, 20, 103, 119, 76, 49, 66, 92, 72, 89, 100, 80, 22, 43, 87, 39, 63, 14, 62, 123, 13, 14, 20, 96, 18, 93, 79, 92, 88, 56, 94, 103, 43, 76, 61, 63, 94, 58, 115, 51, 70, 125, 64, 68, 50, 96, 53, 87, 83, 100, 55, 57, 121, 112, 88, 90, 69, 48, 86, 105, 51, 69, 86, 36, 35, 71, 87, 32, 104, 59, 44, 69, 91, 78, 64, 75, 82, 53, 35, 43, 107, 60, 113, 17, 94, 104, 34, 77, 81, 99, 92, 73, 43, 61, 48, 29, 87, 94, 90, 79
              |50, 71, 61, 62, 51, 86, 37, 59, 31, 18, 92, 63, 52, 35, 76, 95, 72, 72, 64, 86, 100, 63, 71, 32, 43, 73, 103, 92, 32, 81, 74, 46, 46, 97, 23, 72, 60, 47, 54, 14, 25, 68, 80, 74, 71, 66, 41, 61, 60, 88, 43, 21, 70, 17, 53, 52, 27, 28, 58, 83, 68, 12, 68, 22, 25, 31, 36, 79, 66, 63, 39, 98, 34, 52, 47, 89, 54, 76, 69, 14, 56, 51, 88, 60, 54, 63, 27, 82, 49, 51, 15, 75, 43, 107, 8, 16, 54, 87, 39, 91, 59, 84, 97, 66, 53, 76, 38, 54, 73, 100, 77, 35, 49, 48, 99, 32, 25, 41, 81, 48, 69, 17, 42, 38, 28, 30, 13, 46, 88, 88, 7, 23, 13, 70, 41, 3, 15, 72, 90, 11, 11, 25, 42, 93, 97, 80, 61, 72, 49, 102, 68, 13, 76, 35, 25, 18, 79, 39, 86, 73, 68, 52, 34, 71, 10, 37, 0, 75, 59, 56, 78, 52, 33, 37, 77, 40, 92, 75, 81, 17, 80, 49, 80, 85, 96, 76, 59, 53, 61, 54, 44, 74, 20, 75, 67, 10, 47, 57, 28, 40, 6, 53, 69, 80, 12, 75, 37, 59, 22, 75, 111, 77, 50, 31, 84, 76, 10, 72, 14, 80, 69, 60, 53, 28, 66, 25, 70, 77, 16, 26, 70, 94, 30, 5, 28, 47, 47, 33, 60, 59, 2, 81, 42, 11, 37, 79, 20, 37, 16, 37, 31, 65, 80, 65, 23, 24, 45, 24, 14, 60, 60, 16, 35, 38, 38, 7, 76, 74, 41, 55, 28, 24, 77, 75, 11, 87, 57, 33, 79, 54, 46, 36, 59, 74, 22, 76, 66, 14, 9, 112, 70, 17, 57, 13, 77, 56, 57, 68, 74, 30
              |60, 86, 47, 29, 53, 88, 7, 68, 27, 42, 79, 61, 53, 4, 64, 87, 58, 89, 65, 67, 86, 44, 58, 17, 30, 72, 88, 83, 40, 73, 61, 15, 36, 81, 13, 46, 71, 62, 25, 32, 41, 44, 55, 48, 44, 42, 40, 28, 80, 74, 60, 21, 57, 45, 44, 75, 38, 32, 70, 65, 80, 36, 72, 24, 36, 17, 35, 47, 55, 32, 62, 78, 57, 19, 28, 70, 34, 76, 57, 40, 23, 17, 88, 81, 72, 79, 47, 58, 34, 65, 46, 89, 12, 93, 41, 26, 68, 72, 11, 78, 61, 90, 89, 32, 52, 80, 7, 72, 43, 89, 82, 16, 64, 23, 81, 59, 20, 62, 48, 14, 59, 47, 19, 10, 18, 4, 35, 45, 63, 62, 41, 11, 27, 42, 35, 32, 21, 80, 87, 44, 30, 17, 11, 77, 89, 86, 64, 51, 34, 91, 35, 27, 94, 2, 55, 50, 48, 60, 73, 56, 78, 51, 57, 40, 43, 55, 34, 47, 50, 44, 72, 71, 45, 48, 65, 38, 78, 72, 91, 20, 49, 70, 56, 65, 77, 59, 68, 22, 52, 49, 40, 56, 22, 79, 35, 41, 39, 44, 5, 42, 32, 20, 77, 91, 39, 51, 36, 65, 35, 71, 98, 67, 17, 11, 75, 48, 24, 39, 23, 94, 36, 26, 20, 58, 34, 55, 63, 74, 49, 21, 71, 89, 9, 37, 27, 39, 61, 27, 81, 39, 32, 96, 37, 31, 22, 77, 15, 53, 45, 63, 23, 48, 92, 81, 52, 52, 42, 10, 47, 74, 41, 34, 51, 7, 8, 32, 70, 45, 67, 41, 5, 33, 73, 65, 26, 71, 57, 21, 49, 31, 70, 31, 79, 41, 55, 80, 37, 40, 42, 98, 70, 36, 34, 23, 52, 26, 60, 71, 71, 44
              |49, 68, 67, 71, 53, 87, 46, 59, 37, 17, 96, 66, 55, 45, 80, 98, 77, 68, 66, 92, 104, 70, 76, 40, 50, 75, 108, 95, 35, 84, 79, 56, 52, 102, 32, 79, 59, 45, 62, 18, 25, 75, 87, 81, 79, 73, 45, 70, 55, 92, 41, 30, 75, 12, 58, 46, 30, 33, 57, 88, 66, 17, 68, 29, 28, 39, 41, 88, 70, 72, 35, 104, 30, 62, 55, 95, 61, 78, 73, 15, 65, 60, 89, 56, 50, 59, 25, 89, 55, 49, 12, 72, 52, 112, 3, 22, 52, 92, 48, 95, 60, 83, 100, 75, 56, 76, 47, 51, 82, 104, 77, 44, 47, 56, 104, 26, 33, 37, 90, 57, 74, 11, 50, 47, 36, 39, 18, 49, 95, 95, 3, 33, 21, 78, 46, 12, 24, 71, 92, 6, 17, 33, 51, 98, 100, 79, 62, 78, 55, 106, 78, 20, 71, 44, 17, 11, 88, 36, 90, 79, 67, 55, 30, 80, 5, 35, 9, 83, 64, 61, 80, 48, 34, 38, 82, 44, 97, 77, 79, 25, 89, 44, 87, 91, 102, 82, 59, 62, 65, 57, 48, 80, 28, 75, 76, 7, 52, 62, 38, 43, 13, 62, 69, 78, 13, 82, 41, 60, 25, 78, 115, 81, 60, 40, 87, 84, 19, 81, 22, 77, 78, 69, 62, 20, 75, 18, 74, 79, 6, 34, 71, 96, 39, 6, 34, 52, 45, 39, 55, 65, 11, 78, 47, 18, 44, 80, 29, 36, 11, 31, 38, 72, 77, 62, 20, 18, 49, 34, 7, 58, 67, 21, 34, 47, 47, 12, 79, 83, 34, 61, 38, 28, 79, 79, 19, 92, 59, 40, 87, 61, 40, 42, 55, 83, 13, 76, 74, 15, 3, 117, 72, 19, 65, 22, 84, 65, 58, 69, 76, 30
              |58, 79, 19, 52, 45, 61, 44, 59, 44, 68, 33, 40, 42, 54, 25, 45, 18, 85, 46, 17, 38, 11, 20, 42, 31, 47, 38, 43, 51, 35, 22, 56, 30, 32, 52, 9, 64, 66, 28, 62, 61, 8, 8, 9, 14, 10, 40, 52, 84, 29, 67, 71, 20, 74, 28, 85, 55, 49, 66, 17, 72, 81, 55, 51, 55, 43, 42, 35, 23, 30, 75, 27, 73, 43, 26, 19, 20, 50, 23, 85, 39, 45, 58, 85, 76, 78, 66, 9, 25, 66, 89, 80, 40, 44, 81, 58, 67, 26, 40, 33, 47, 69, 47, 43, 40, 60, 44, 74, 22, 43, 62, 39, 67, 28, 30, 79, 71, 73, 43, 46, 26, 78, 33, 41, 45, 54, 81, 39, 15, 16, 79, 59, 74, 16, 36, 74, 68, 64, 54, 85, 64, 49, 40, 29, 49, 66, 49, 4, 25, 45, 51, 61, 90, 52, 84, 91, 31, 71, 30, 12, 67, 40, 74, 27, 83, 66, 73, 18, 26, 23, 40, 77, 56, 56, 24, 40, 31, 44, 75, 57, 30, 78, 8, 14, 26, 13, 59, 34, 28, 34, 37, 10, 71, 58, 32, 74, 31, 22, 53, 44, 75, 53, 62, 78, 84, 4, 42, 54, 58, 41, 49, 29, 52, 62, 36, 15, 65, 39, 59, 83, 39, 44, 53, 84, 34, 81, 32, 45, 83, 47, 51, 52, 60, 74, 47, 32, 64, 41, 84, 15, 72, 86, 36, 77, 37, 48, 63, 63, 75, 81, 42, 11, 80, 77, 96, 77, 38, 59, 87, 70, 14, 81, 63, 44, 57, 68, 38, 22, 84, 22, 53, 54, 43, 28, 72, 23, 43, 41, 22, 21, 83, 39, 82, 36, 87, 60, 19, 85, 81, 49, 47, 63, 17, 70, 7, 28, 49, 51, 43, 59
              |52, 66, 23, 76, 40, 41, 62, 49, 53, 73, 9, 29, 37, 73, 9, 21, 12, 73, 34, 13, 17, 26, 12, 56, 42, 30, 20, 18, 54, 14, 9, 77, 38, 14, 66, 34, 54, 61, 49, 70, 65, 31, 29, 33, 39, 33, 43, 76, 75, 5, 63, 87, 13, 80, 30, 80, 59, 55, 56, 9, 59, 94, 42, 62, 60, 56, 48, 59, 18, 54, 73, 21, 72, 65, 42, 15, 36, 32, 15, 97, 62, 67, 36, 77, 69, 68, 68, 27, 36, 59, 98, 66, 59, 24, 89, 68, 59, 4, 59, 9, 37, 50, 23, 67, 35, 43, 63, 66, 47, 19, 44, 55, 61, 47, 17, 79, 87, 70, 67, 67, 15, 83, 50, 59, 58, 71, 94, 39, 30, 32, 88, 75, 88, 41, 42, 85, 82, 49, 31, 94, 73, 62, 60, 9, 24, 48, 38, 22, 36, 22, 75, 71, 78, 71, 87, 99, 55, 69, 5, 14, 54, 35, 73, 51, 92, 65, 83, 42, 24, 28, 21, 70, 57, 56, 7, 44, 9, 26, 59, 69, 54, 73, 28, 16, 17, 12, 49, 56, 23, 32, 40, 15, 87, 41, 56, 81, 36, 27, 70, 46, 87, 76, 48, 62, 95, 28, 47, 44, 64, 23, 28, 10, 74, 80, 13, 39, 77, 63, 70, 68, 64, 68, 76, 86, 58, 84, 18, 26, 90, 58, 36, 28, 78, 83, 56, 37, 59, 51, 76, 30, 82, 71, 41, 90, 50, 29, 78, 62, 80, 80, 53, 22, 65, 65, 107, 80, 40, 75, 95, 60, 29, 95, 62, 63, 76, 77, 20, 46, 82, 29, 70, 60, 25, 11, 85, 6, 35, 53, 45, 39, 80, 47, 73, 61, 92, 43, 43, 97, 90, 29, 32, 69, 37, 84, 30, 51, 40, 36, 26, 61
              |21, 9, 59, 104, 33, 39, 76, 18, 53, 44, 70, 39, 36, 83, 59, 63, 62, 10, 33, 78, 77, 68, 60, 63, 57, 38, 82, 61, 39, 55, 61, 93, 53, 79, 66, 83, 13, 17, 80, 52, 40, 77, 85, 84, 86, 77, 43, 103, 9, 68, 20, 81, 60, 47, 50, 18, 41, 47, 12, 73, 11, 74, 26, 55, 43, 62, 45, 105, 55, 91, 24, 88, 29, 91, 65, 81, 67, 38, 57, 74, 91, 90, 45, 11, 9, 1, 36, 85, 59, 14, 70, 13, 79, 83, 62, 55, 11, 70, 75, 68, 31, 30, 65, 101, 38, 29, 77, 8, 93, 73, 29, 66, 15, 72, 84, 34, 84, 22, 111, 88, 54, 48, 69, 74, 61, 77, 75, 41, 91, 92, 61, 75, 74, 87, 49, 65, 73, 22, 50, 65, 56, 62, 78, 75, 63, 28, 29, 74, 59, 74, 108, 57, 15, 81, 45, 68, 103, 23, 65, 67, 15, 38, 29, 95, 64, 26, 62, 91, 52, 55, 48, 11, 34, 31, 61, 45, 72, 42, 23, 61, 102, 16, 85, 79, 84, 70, 18, 85, 50, 43, 45, 70, 80, 30, 95, 53, 50, 56, 75, 40, 68, 97, 21, 20, 72, 81, 45, 24, 45, 45, 84, 57, 95, 84, 57, 90, 64, 103, 59, 18, 101, 98, 97, 42, 96, 43, 49, 43, 55, 57, 32, 56, 82, 58, 52, 49, 17, 53, 10, 67, 63, 19, 48, 74, 61, 42, 74, 27, 48, 30, 57, 66, 19, 4, 78, 41, 43, 75, 64, 7, 67, 78, 28, 77, 87, 57, 48, 93, 29, 57, 75, 47, 44, 56, 71, 73, 35, 59, 96, 71, 23, 51, 7, 103, 52, 29, 85, 74, 62, 87, 36, 48, 72, 73, 84, 84, 28, 31, 42, 35
              |29, 35, 34, 92, 24, 13, 69, 22, 50, 60, 33, 14, 24, 79, 26, 26, 31, 42, 11, 44, 39, 43, 30, 58, 45, 3, 45, 24, 43, 18, 29, 87, 39, 42, 66, 57, 26, 37, 64, 61, 51, 53, 57, 58, 62, 54, 36, 91, 46, 32, 40, 86, 30, 65, 32, 53, 48, 49, 28, 39, 28, 87, 12, 57, 50, 58, 42, 83, 27, 73, 51, 53, 52, 79, 51, 47, 48, 1, 27, 89, 77, 80, 13, 48, 42, 39, 52, 56, 43, 34, 88, 35, 69, 46, 79, 62, 33, 34, 67, 31, 17, 19, 27, 85, 23, 11, 70, 39, 70, 35, 13, 59, 36, 58, 48, 59, 88, 48, 91, 79, 23, 68, 58, 66, 58, 75, 88, 31, 60, 62, 77, 76, 84, 64, 40, 78, 80, 17, 15, 83, 65, 61, 69, 38, 26, 17, 14, 46, 43, 36, 93, 64, 46, 77, 69, 88, 80, 47, 29, 38, 23, 24, 53, 73, 81, 45, 75, 67, 28, 34, 11, 44, 43, 39, 28, 38, 35, 6, 27, 66, 79, 47, 56, 47, 49, 39, 22, 71, 25, 26, 35, 40, 86, 9, 77, 69, 36, 35, 73, 36, 80, 88, 17, 30, 87, 54, 41, 18, 53, 9, 47, 22, 86, 84, 20, 64, 72, 84, 65, 36, 84, 84, 88, 68, 78, 67, 18, 6, 76, 56, 6, 20, 82, 73, 52, 36, 36, 49, 47, 45, 74, 39, 38, 85, 53, 4, 78, 43, 66, 58, 53, 40, 33, 35, 97, 63, 33, 76, 84, 31, 45, 90, 44, 70, 83, 69, 12, 70, 59, 37, 73, 52, 7, 22, 80, 38, 18, 54, 71, 53, 55, 45, 44, 83, 76, 11, 64, 89, 79, 49, 5, 59, 52, 81, 57, 67, 19, 8, 6, 47
              |31, 9, 68, 114, 43, 43, 87, 28, 64, 54, 77, 47, 46, 93, 68, 68, 71, 2, 41, 86, 83, 77, 69, 74, 68, 45, 89, 67, 50, 62, 69, 104, 63, 86, 77, 93, 22, 27, 91, 62, 50, 87, 95, 94, 96, 87, 54, 114, 12, 75, 30, 90, 69, 55, 60, 23, 51, 58, 22, 81, 16, 83, 33, 65, 53, 73, 56, 115, 64, 101, 32, 96, 37, 101, 76, 89, 77, 44, 65, 82, 102, 101, 49, 12, 18, 10, 45, 95, 70, 24, 78, 11, 89, 89, 70, 65, 22, 78, 85, 75, 40, 32, 70, 112, 48, 34, 88, 18, 103, 78, 33, 77, 25, 83, 91, 41, 93, 31, 122, 99, 63, 56, 79, 85, 71, 87, 84, 51, 100, 102, 69, 85, 83, 97, 59, 75, 83, 27, 54, 73, 65, 73, 89, 82, 68, 31, 38, 83, 70, 80, 118, 66, 4, 92, 52, 75, 113, 32, 72, 77, 21, 48, 37, 105, 72, 35, 71, 101, 61, 65, 55, 19, 44, 41, 70, 55, 79, 49, 23, 72, 113, 23, 95, 88, 92, 79, 28, 95, 59, 53, 55, 79, 89, 35, 106, 62, 61, 66, 85, 50, 77, 108, 27, 19, 80, 91, 55, 33, 55, 52, 90, 65, 105, 94, 64, 100, 74, 113, 69, 14, 112, 108, 108, 49, 106, 50, 58, 50, 63, 68, 39, 60, 93, 67, 63, 60, 28, 64, 12, 77, 72, 13, 58, 83, 72, 48, 84, 37, 56, 37, 68, 76, 16, 10, 85, 49, 53, 85, 72, 17, 77, 87, 38, 88, 97, 66, 55, 103, 34, 67, 85, 57, 51, 64, 81, 81, 44, 70, 106, 81, 28, 62, 12, 113, 59, 34, 95, 82, 70, 93, 43, 57, 82, 83, 94, 94, 38, 38, 49, 46
              |83, 107, 48, 28, 71, 94, 41, 87, 56, 80, 66, 70, 68, 46, 58, 79, 51, 113, 76, 48, 70, 38, 53, 49, 47, 79, 68, 76, 69, 69, 55, 40, 51, 62, 55, 25, 92, 90, 26, 72, 76, 29, 29, 25, 20, 28, 61, 29, 108, 62, 89, 67, 52, 86, 54, 107, 71, 63, 92, 50, 100, 81, 86, 61, 70, 50, 60, 1, 54, 15, 95, 53, 91, 28, 39, 48, 37, 82, 55, 86, 23, 30, 91, 110, 100, 104, 83, 32, 44, 91, 92, 109, 35, 74, 86, 66, 92, 59, 39, 66, 75, 100, 80, 18, 67, 91, 40, 98, 12, 75, 93, 45, 91, 34, 59, 96, 65, 94, 9, 33, 59, 89, 39, 40, 53, 50, 81, 63, 33, 31, 85, 57, 73, 18, 55, 77, 67, 94, 87, 89, 71, 54, 36, 61, 82, 97, 78, 37, 44, 77, 23, 68, 118, 45, 96, 95, 3, 91, 63, 46, 96, 66, 92, 9, 88, 86, 78, 16, 54, 50, 73, 100, 75, 76, 57, 60, 63, 76, 106, 62, 5, 100, 30, 45, 54, 46, 87, 25, 57, 61, 59, 44, 67, 89, 11, 83, 53, 49, 50, 65, 78, 34, 92, 108, 85, 30, 61, 82, 71, 74, 79, 63, 35, 54, 70, 19, 68, 9, 65, 112, 12, 23, 34, 98, 12, 95, 64, 77, 92, 56, 82, 86, 53, 81, 59, 54, 88, 55, 109, 37, 76, 115, 56, 77, 47, 81, 61, 83, 86, 99, 53, 42, 110, 104, 98, 91, 61, 56, 92, 97, 37, 79, 82, 40, 46, 75, 71, 12, 102, 47, 50, 67, 76, 61, 72, 55, 71, 50, 13, 33, 104, 55, 106, 6, 97, 91, 18, 86, 87, 78, 78, 74, 31, 69, 28, 22, 77, 81, 75, 77
              |51, 77, 33, 33, 42, 76, 7, 58, 18, 41, 65, 49, 41, 17, 50, 73, 44, 81, 53, 54, 72, 31, 44, 9, 17, 59, 74, 70, 33, 59, 47, 25, 23, 67, 16, 34, 62, 55, 15, 31, 37, 31, 43, 36, 33, 29, 29, 32, 74, 61, 53, 33, 43, 46, 31, 70, 32, 25, 61, 52, 71, 44, 61, 21, 31, 10, 26, 41, 41, 25, 57, 65, 53, 20, 14, 56, 20, 64, 43, 49, 21, 19, 75, 75, 66, 72, 44, 46, 20, 57, 53, 80, 8, 79, 47, 26, 60, 59, 4, 64, 49, 78, 75, 31, 41, 68, 8, 64, 35, 75, 71, 5, 57, 10, 67, 56, 33, 57, 45, 17, 46, 49, 5, 4, 13, 16, 44, 33, 51, 51, 45, 21, 37, 32, 24, 38, 31, 69, 74, 50, 31, 14, 7, 64, 76, 74, 52, 38, 20, 77, 37, 28, 86, 16, 56, 56, 41, 54, 59, 42, 68, 40, 54, 33, 49, 49, 39, 37, 36, 30, 59, 65, 38, 41, 51, 27, 64, 59, 81, 22, 42, 64, 44, 52, 63, 45, 58, 16, 39, 36, 29, 42, 33, 67, 29, 43, 26, 30, 15, 32, 39, 27, 66, 81, 47, 38, 27, 55, 32, 58, 84, 53, 24, 25, 61, 38, 29, 36, 25, 84, 33, 27, 27, 58, 29, 55, 49, 61, 52, 16, 59, 75, 23, 41, 20, 26, 54, 18, 74, 26, 37, 87, 26, 40, 10, 64, 25, 47, 46, 60, 14, 34, 83, 72, 60, 51, 31, 21, 53, 65, 27, 44, 46, 8, 21, 35, 57, 36, 64, 27, 15, 28, 60, 51, 34, 57, 46, 12, 40, 18, 66, 20, 72, 37, 57, 68, 27, 49, 48, 84, 58, 34, 21, 32, 40, 18, 49, 59, 58, 39
              |29, 35, 65, 95, 41, 63, 67, 35, 46, 26, 86, 52, 44, 71, 72, 82, 72, 34, 49, 89, 93, 72, 71, 55, 56, 56, 99, 80, 33, 71, 72, 82, 54, 94, 54, 86, 33, 20, 77, 36, 27, 81, 91, 88, 88, 80, 43, 94, 20, 83, 18, 63, 70, 25, 55, 10, 32, 39, 30, 84, 36, 52, 46, 44, 33, 54, 42, 103, 65, 88, 8, 101, 11, 83, 64, 92, 67, 58, 67, 51, 85, 82, 67, 20, 17, 26, 20, 92, 60, 23, 46, 40, 71, 101, 39, 41, 25, 84, 67, 84, 44, 56, 84, 95, 46, 52, 68, 20, 93, 91, 52, 59, 21, 69, 98, 10, 66, 10, 108, 80, 66, 25, 64, 66, 52, 64, 54, 44, 98, 99, 39, 60, 55, 88, 48, 45, 56, 45, 71, 42, 39, 52, 70, 90, 83, 52, 44, 80, 60, 93, 100, 41, 36, 69, 20, 43, 102, 12, 80, 76, 39, 46, 10, 94, 41, 17, 42, 93, 59, 60, 65, 15, 28, 27, 74, 44, 87, 60, 49, 47, 102, 11, 91, 89, 97, 79, 35, 80, 59, 50, 46, 78, 61, 52, 92, 32, 52, 61, 62, 39, 48, 87, 43, 47, 49, 86, 42, 39, 32, 62, 103, 71, 85, 70, 74, 93, 47, 99, 45, 44, 97, 91, 87, 17, 92, 18, 63, 62, 31, 48, 51, 77, 68, 37, 44, 51, 22, 48, 20, 70, 43, 44, 48, 53, 56, 62, 58, 20, 26, 5, 50, 72, 45, 30, 53, 18, 45, 61, 40, 28, 70, 57, 20, 68, 74, 38, 64, 94, 2, 61, 62, 36, 62, 70, 52, 86, 46, 52, 98, 70, 4, 47, 21, 100, 27, 52, 85, 51, 39, 105, 54, 32, 73, 55, 89, 80, 41, 49, 59, 26
              |31, 25, 48, 104, 32, 9, 80, 22, 59, 63, 45, 26, 33, 89, 40, 35, 45, 32, 20, 58, 50, 57, 44, 68, 57, 17, 56, 34, 49, 32, 43, 98, 51, 55, 75, 72, 22, 36, 77, 67, 56, 67, 71, 72, 76, 68, 45, 104, 39, 45, 40, 94, 44, 68, 44, 48, 54, 56, 25, 53, 20, 92, 13, 65, 56, 68, 50, 97, 41, 86, 49, 66, 52, 91, 63, 60, 61, 14, 41, 94, 90, 91, 15, 41, 38, 31, 55, 70, 56, 32, 92, 23, 81, 56, 83, 68, 30, 48, 78, 43, 24, 5, 36, 98, 33, 5, 81, 35, 84, 45, 3, 70, 35, 70, 60, 59, 96, 47, 104, 90, 37, 70, 69, 77, 67, 85, 93, 41, 74, 76, 81, 85, 90, 77, 50, 83, 87, 9, 20, 86, 71, 70, 80, 51, 34, 3, 21, 60, 56, 46, 106, 71, 35, 87, 70, 90, 94, 46, 42, 52, 16, 34, 53, 87, 85, 46, 80, 81, 41, 47, 25, 40, 47, 43, 42, 47, 48, 20, 13, 73, 93, 44, 70, 61, 62, 53, 22, 83, 38, 37, 45, 54, 93, 6, 90, 73, 47, 48, 82, 44, 86, 100, 12, 17, 91, 68, 49, 21, 59, 23, 56, 36, 97, 93, 33, 79, 79, 98, 72, 23, 97, 97, 100, 68, 91, 67, 32, 20, 78, 65, 14, 26, 91, 77, 60, 47, 35, 58, 40, 59, 80, 26, 48, 91, 64, 17, 86, 44, 69, 57, 63, 54, 20, 27, 100, 64, 43, 85, 87, 26, 58, 96, 46, 81, 93, 74, 26, 84, 57, 50, 82, 58, 21, 37, 87, 51, 28, 64, 85, 66, 52, 55, 38, 96, 77, 5, 77, 94, 83, 59, 17, 64, 66, 87, 71, 80, 25, 15, 21, 51
              |16, 11, 53, 99, 27, 35, 72, 12, 49, 43, 64, 33, 30, 79, 53, 58, 56, 15, 27, 72, 71, 62, 54, 59, 52, 32, 77, 56, 35, 49, 55, 90, 48, 73, 63, 77, 7, 14, 75, 50, 37, 72, 79, 78, 80, 72, 38, 99, 14, 62, 18, 78, 54, 46, 44, 22, 38, 43, 6, 67, 8, 73, 20, 52, 40, 58, 41, 99, 49, 86, 25, 82, 29, 86, 60, 75, 61, 32, 50, 73, 86, 86, 40, 16, 11, 7, 34, 79, 54, 10, 70, 14, 74, 78, 61, 53, 7, 64, 70, 62, 25, 27, 59, 96, 32, 24, 73, 9, 87, 67, 24, 62, 12, 67, 78, 35, 81, 22, 106, 84, 48, 48, 64, 70, 57, 73, 74, 35, 85, 86, 60, 72, 72, 81, 44, 64, 71, 17, 45, 65, 54, 59, 74, 69, 58, 24, 23, 68, 54, 68, 103, 54, 20, 77, 46, 68, 97, 23, 59, 61, 11, 32, 29, 89, 64, 24, 61, 86, 46, 49, 42, 13, 31, 27, 55, 40, 66, 36, 21, 59, 97, 18, 79, 73, 78, 64, 12, 80, 44, 38, 40, 64, 77, 25, 90, 52, 45, 50, 71, 35, 67, 93, 16, 19, 71, 75, 40, 17, 42, 39, 79, 51, 90, 81, 51, 84, 62, 98, 57, 19, 96, 93, 93, 43, 91, 43, 43, 38, 56, 54, 26, 51, 79, 57, 48, 44, 14, 49, 15, 61, 61, 21, 42, 72, 56, 36, 72, 24, 47, 32, 53, 60, 19, 6, 78, 41, 38, 72, 64, 1, 61, 77, 26, 73, 83, 55, 42, 88, 31, 52, 71, 43, 38, 50, 69, 67, 29, 55, 90, 65, 25, 46, 12, 97, 53, 24, 80, 73, 62, 81, 30, 45, 67, 71, 78, 79, 22, 25, 36, 33
              |50, 67, 70, 77, 55, 87, 51, 59, 40, 18, 99, 67, 57, 50, 83, 100, 80, 66, 67, 95, 107, 74, 79, 44, 53, 76, 111, 97, 37, 86, 82, 61, 55, 105, 37, 83, 59, 44, 67, 22, 27, 79, 91, 86, 83, 78, 48, 76, 53, 95, 40, 35, 78, 12, 61, 43, 32, 36, 56, 91, 65, 21, 68, 33, 31, 43, 44, 93, 73, 77, 33, 108, 29, 67, 59, 98, 65, 78, 76, 18, 71, 65, 90, 53, 48, 57, 26, 93, 59, 48, 13, 71, 57, 114, 8, 26, 51, 95, 53, 97, 61, 83, 102, 80, 58, 76, 52, 50, 86, 106, 77, 48, 46, 61, 107, 24, 39, 36, 96, 62, 76, 10, 54, 52, 40, 44, 22, 52, 99, 99, 8, 38, 26, 83, 49, 17, 30, 71, 93, 9, 21, 38, 56, 100, 101, 79, 63, 82, 59, 108, 83, 24, 69, 50, 13, 10, 93, 35, 92, 82, 66, 57, 28, 85, 8, 35, 15, 88, 67, 64, 82, 46, 35, 39, 84, 47, 99, 78, 79, 30, 94, 42, 91, 95, 105, 85, 59, 67, 68, 60, 51, 83, 34, 76, 81, 10, 56, 65, 43, 45, 19, 68, 69, 77, 17, 86, 44, 60, 27, 79, 118, 84, 65, 46, 89, 88, 25, 86, 27, 76, 84, 75, 68, 16, 80, 15, 76, 80, 2, 38, 72, 97, 45, 11, 37, 55, 45, 43, 53, 69, 17, 76, 50, 23, 48, 82, 35, 36, 11, 28, 42, 75, 76, 61, 20, 16, 51, 39, 7, 57, 71, 26, 34, 52, 53, 17, 81, 87, 31, 64, 43, 31, 80, 82, 25, 95, 61, 44, 92, 66, 37, 45, 53, 88, 8, 76, 79, 18, 7, 119, 73, 22, 69, 28, 89, 70, 59, 70, 77, 31
              |33, 58, 39, 56, 30, 66, 28, 41, 9, 16, 69, 41, 31, 33, 53, 72, 49, 60, 43, 64, 77, 42, 49, 16, 22, 52, 81, 69, 12, 58, 52, 44, 24, 75, 16, 53, 44, 34, 39, 9, 12, 48, 60, 55, 53, 47, 19, 55, 51, 65, 31, 33, 48, 22, 30, 46, 9, 6, 42, 60, 53, 34, 48, 5, 7, 15, 14, 66, 43, 50, 33, 77, 28, 44, 28, 67, 34, 55, 46, 36, 46, 43, 67, 52, 43, 51, 19, 62, 28, 37, 38, 61, 32, 85, 29, 8, 40, 64, 28, 68, 38, 65, 75, 56, 31, 56, 29, 43, 57, 77, 58, 20, 35, 31, 77, 31, 35, 33, 70, 41, 47, 25, 25, 27, 13, 27, 34, 24, 68, 68, 27, 25, 29, 53, 18, 24, 26, 54, 68, 33, 12, 13, 31, 70, 74, 61, 41, 51, 28, 80, 61, 10, 65, 31, 32, 39, 65, 30, 63, 51, 52, 30, 29, 57, 31, 26, 23, 58, 37, 34, 55, 42, 16, 20, 54, 17, 69, 53, 65, 12, 66, 40, 60, 64, 74, 54, 41, 41, 38, 31, 21, 52, 32, 55, 54, 22, 25, 34, 25, 18, 27, 49, 51, 64, 34, 55, 14, 40, 7, 53, 88, 55, 46, 34, 61, 58, 18, 61, 11, 66, 58, 52, 49, 33, 54, 30, 47, 55, 31, 9, 49, 72, 32, 22, 6, 24, 33, 11, 51, 38, 21, 68, 20, 31, 18, 57, 25, 24, 22, 35, 12, 44, 65, 52, 46, 26, 22, 25, 35, 46, 39, 36, 22, 29, 37, 16, 54, 58, 39, 33, 25, 4, 55, 52, 26, 65, 36, 14, 62, 35, 41, 14, 50, 62, 35, 56, 49, 36, 29, 90, 49, 10, 38, 26, 57, 42, 36, 48, 52, 15
              |32, 40, 66, 94, 43, 66, 66, 38, 46, 24, 88, 54, 46, 69, 74, 85, 73, 38, 51, 90, 96, 73, 73, 54, 56, 59, 101, 83, 33, 74, 74, 80, 54, 96, 52, 86, 36, 23, 76, 34, 26, 81, 92, 88, 88, 81, 44, 93, 24, 85, 20, 60, 71, 22, 56, 14, 31, 39, 33, 86, 40, 49, 49, 43, 32, 53, 42, 103, 66, 87, 10, 102, 11, 82, 64, 94, 68, 61, 69, 48, 84, 81, 71, 24, 21, 30, 19, 93, 60, 26, 42, 44, 70, 103, 36, 39, 28, 86, 66, 87, 47, 59, 87, 94, 48, 55, 67, 24, 93, 93, 56, 58, 24, 68, 100, 7, 63, 13, 108, 78, 67, 22, 63, 65, 51, 62, 50, 45, 99, 100, 35, 58, 51, 88, 48, 42, 53, 49, 75, 38, 37, 50, 69, 92, 86, 56, 47, 81, 60, 95, 99, 39, 40, 68, 16, 39, 102, 14, 82, 78, 43, 47, 10, 94, 37, 18, 39, 93, 61, 61, 68, 19, 28, 28, 76, 44, 90, 63, 53, 45, 102, 15, 92, 91, 99, 81, 38, 79, 60, 52, 47, 80, 59, 55, 92, 29, 53, 62, 60, 40, 45, 86, 47, 51, 46, 87, 42, 42, 31, 65, 106, 73, 83, 67, 76, 93, 45, 99, 43, 48, 96, 90, 86, 13, 92, 15, 65, 65, 27, 47, 54, 80, 66, 34, 43, 52, 25, 47, 24, 70, 40, 49, 48, 50, 55, 65, 56, 21, 23, 3, 49, 73, 49, 34, 49, 15, 46, 59, 36, 32, 71, 54, 21, 67, 72, 36, 67, 94, 2, 62, 60, 35, 65, 72, 49, 88, 48, 52, 98, 70, 8, 47, 25, 99, 23, 55, 85, 48, 35, 108, 57, 30, 73, 52, 90, 80, 43, 52, 62, 25
              |81, 106, 50, 15, 69, 97, 32, 86, 51, 73, 73, 71, 67, 34, 63, 85, 56, 111, 77, 56, 78, 41, 57, 42, 44, 81, 77, 82, 64, 74, 60, 27, 49, 71, 46, 31, 91, 86, 21, 64, 70, 34, 38, 32, 26, 32, 58, 16, 105, 69, 85, 55, 57, 78, 54, 102, 65, 57, 91, 57, 99, 70, 86, 53, 64, 43, 56, 14, 57, 11, 90, 63, 85, 16, 36, 57, 36, 85, 59, 75, 12, 18, 95, 106, 97, 102, 76, 41, 43, 88, 81, 108, 26, 83, 76, 58, 90, 66, 30, 73, 75, 102, 87, 4, 66, 92, 30, 95, 19, 83, 95, 38, 87, 29, 69, 89, 52, 89, 13, 21, 62, 81, 33, 31, 45, 39, 69, 61, 44, 42, 75, 46, 62, 24, 52, 67, 56, 95, 92, 79, 63, 46, 27, 69, 88, 99, 78, 42, 43, 85, 11, 60, 116, 34, 88, 85, 16, 87, 70, 51, 96, 65, 86, 14, 78, 81, 68, 25, 56, 50, 77, 97, 70, 72, 63, 57, 71, 79, 107, 53, 18, 96, 39, 53, 64, 52, 86, 17, 59, 61, 57, 50, 56, 91, 8, 75, 52, 50, 40, 62, 67, 21, 92, 108, 74, 37, 57, 82, 64, 77, 88, 67, 22, 42, 75, 27, 58, 4, 56, 112, 1, 10, 21, 90, 6, 87, 67, 81, 83, 49, 83, 91, 42, 72, 53, 52, 85, 49, 106, 39, 66, 115, 54, 66, 41, 84, 50, 79, 78, 93, 47, 45, 110, 102, 86, 83, 59, 45, 82, 95, 39, 68, 78, 30, 34, 66, 75, 21, 97, 47, 40, 61, 79, 66, 61, 63, 71, 44, 24, 32, 98, 51, 103, 8, 89, 92, 21, 75, 77, 88, 80, 67, 32, 58, 36, 18, 76, 83, 78, 71
              |68, 83, 34, 76, 56, 56, 69, 66, 65, 87, 18, 46, 53, 79, 25, 32, 25, 90, 51, 9, 18, 33, 26, 65, 52, 47, 15, 31, 69, 30, 24, 81, 49, 10, 76, 33, 71, 78, 53, 83, 79, 33, 24, 31, 37, 35, 57, 76, 92, 17, 79, 96, 27, 93, 44, 96, 73, 68, 73, 13, 76, 104, 59, 73, 74, 66, 61, 54, 32, 54, 89, 4, 88, 68, 50, 6, 43, 49, 30, 108, 64, 69, 51, 94, 86, 85, 83, 21, 46, 76, 110, 83, 65, 21, 102, 80, 76, 15, 65, 19, 54, 66, 33, 66, 51, 59, 69, 83, 43, 25, 61, 63, 77, 53, 6, 95, 95, 86, 62, 71, 31, 97, 57, 66, 68, 78, 104, 54, 20, 22, 100, 84, 98, 39, 55, 96, 92, 66, 45, 106, 85, 72, 65, 11, 35, 65, 55, 25, 46, 26, 74, 82, 95, 77, 101, 112, 50, 85, 20, 22, 71, 51, 89, 48, 105, 80, 95, 38, 38, 40, 37, 87, 72, 71, 23, 58, 15, 43, 75, 80, 48, 89, 23, 11, 1, 19, 66, 59, 38, 47, 54, 21, 96, 58, 55, 95, 49, 39, 77, 60, 98, 78, 65, 79, 106, 27, 60, 61, 77, 40, 26, 27, 77, 87, 29, 35, 87, 60, 81, 84, 62, 68, 78, 101, 57, 99, 35, 43, 103, 69, 53, 41, 85, 95, 68, 50, 76, 62, 93, 37, 94, 88, 54, 101, 59, 46, 87, 77, 94, 96, 64, 30, 82, 82, 119, 95, 54, 83, 108, 77, 36, 105, 78, 69, 82, 89, 37, 42, 98, 40, 77, 73, 41, 28, 95, 11, 51, 63, 40, 45, 96, 59, 90, 57, 106, 59, 43, 108, 103, 25, 49, 82, 42, 93, 27, 53, 57, 54, 43, 76
              |57, 75, 72, 71, 60, 94, 48, 66, 42, 24, 103, 72, 62, 45, 86, 105, 82, 75, 73, 97, 110, 75, 82, 44, 55, 82, 114, 102, 41, 91, 85, 56, 57, 108, 35, 83, 66, 52, 65, 24, 32, 79, 91, 85, 83, 78, 52, 70, 62, 98, 48, 28, 81, 19, 64, 53, 36, 39, 64, 94, 73, 12, 75, 34, 35, 43, 47, 90, 76, 74, 42, 110, 37, 63, 59, 100, 65, 85, 79, 9, 67, 61, 97, 62, 57, 66, 33, 94, 61, 56, 4, 79, 54, 118, 5, 27, 59, 98, 50, 101, 67, 90, 107, 76, 63, 83, 49, 58, 85, 110, 85, 47, 54, 59, 110, 33, 31, 44, 92, 58, 80, 18, 53, 49, 40, 40, 13, 56, 99, 100, 6, 33, 18, 82, 52, 12, 24, 79, 99, 1, 22, 37, 53, 104, 106, 86, 69, 83, 61, 113, 78, 24, 78, 45, 23, 6, 91, 43, 96, 84, 74, 62, 37, 83, 2, 42, 12, 87, 70, 67, 87, 55, 41, 45, 88, 50, 103, 84, 87, 28, 92, 51, 92, 97, 107, 88, 66, 64, 71, 64, 54, 85, 26, 82, 78, 14, 58, 68, 39, 50, 12, 62, 76, 85, 8, 86, 47, 67, 31, 85, 122, 88, 60, 40, 94, 88, 21, 83, 26, 84, 80, 70, 62, 26, 77, 24, 80, 86, 11, 38, 78, 103, 39, 11, 39, 57, 53, 44, 62, 70, 14, 85, 53, 15, 48, 87, 29, 43, 18, 37, 43, 77, 85, 69, 13, 25, 55, 34, 4, 65, 72, 17, 41, 49, 47, 17, 86, 86, 41, 66, 39, 34, 86, 86, 18, 98, 66, 44, 90, 66, 47, 47, 62, 85, 17, 83, 77, 9, 4, 123, 79, 26, 69, 22, 89, 68, 65, 76, 83, 37
              |37, 60, 52, 64, 39, 74, 36, 47, 22, 7, 81, 51, 40, 38, 65, 83, 62, 61, 52, 77, 89, 55, 61, 27, 35, 61, 93, 80, 20, 70, 64, 49, 37, 87, 22, 65, 48, 35, 50, 4, 12, 61, 73, 67, 65, 59, 30, 63, 49, 77, 31, 30, 60, 10, 43, 42, 15, 18, 46, 73, 56, 25, 55, 15, 14, 26, 26, 77, 55, 61, 29, 90, 24, 53, 41, 80, 47, 64, 58, 26, 55, 51, 76, 50, 43, 51, 16, 75, 41, 39, 26, 63, 41, 97, 16, 9, 42, 77, 37, 80, 47, 71, 86, 65, 42, 63, 37, 43, 69, 89, 65, 31, 37, 43, 89, 24, 33, 30, 80, 48, 59, 13, 37, 36, 23, 32, 25, 35, 81, 81, 15, 27, 23, 65, 31, 15, 23, 60, 78, 21, 6, 21, 41, 83, 85, 67, 49, 64, 41, 91, 69, 8, 65, 37, 21, 26, 76, 28, 75, 64, 56, 41, 24, 68, 19, 25, 12, 70, 49, 46, 66, 41, 21, 25, 67, 29, 82, 63, 69, 15, 77, 38, 73, 76, 87, 67, 47, 51, 50, 42, 33, 65, 29, 63, 65, 9, 37, 47, 30, 28, 18, 55, 57, 68, 24, 68, 26, 47, 10, 64, 100, 66, 52, 36, 72, 71, 14, 71, 12, 68, 68, 60, 55, 23, 64, 20, 59, 65, 18, 20, 57, 82, 35, 10, 19, 37, 35, 24, 50, 51, 12, 70, 32, 23, 30, 67, 25, 25, 10, 28, 24, 57, 68, 54, 34, 17, 34, 28, 22, 48, 52, 28, 23, 37, 41, 6, 64, 70, 33, 46, 30, 13, 65, 64, 20, 77, 45, 26, 74, 48, 37, 27, 49, 72, 22, 63, 61, 26, 17, 102, 58, 4, 51, 22, 70, 53, 44, 56, 62, 17
              |22, 41, 20, 74, 10, 31, 51, 21, 33, 46, 36, 4, 8, 61, 21, 35, 22, 47, 9, 39, 43, 29, 21, 40, 27, 15, 48, 33, 28, 22, 22, 69, 21, 43, 49, 44, 27, 31, 47, 46, 37, 39, 46, 45, 48, 40, 19, 74, 47, 32, 33, 69, 20, 52, 14, 50, 33, 32, 28, 34, 34, 71, 18, 40, 34, 40, 24, 69, 16, 57, 43, 50, 43, 62, 33, 42, 32, 19, 17, 74, 60, 62, 31, 49, 40, 41, 40, 46, 26, 30, 74, 42, 51, 51, 64, 45, 30, 33, 49, 34, 9, 34, 38, 69, 6, 25, 52, 37, 56, 42, 27, 41, 31, 41, 47, 50, 70, 41, 76, 61, 15, 55, 40, 49, 40, 57, 72, 14, 51, 53, 63, 59, 67, 50, 22, 62, 63, 27, 31, 68, 49, 44, 51, 39, 37, 31, 11, 34, 26, 44, 76, 48, 52, 59, 58, 74, 66, 39, 30, 28, 29, 7, 44, 59, 67, 35, 60, 53, 13, 18, 18, 41, 29, 27, 23, 21, 37, 16, 39, 48, 65, 43, 46, 40, 46, 30, 21, 54, 10, 8, 17, 30, 68, 23, 61, 55, 18, 18, 55, 20, 64, 71, 25, 41, 71, 42, 23, 16, 38, 16, 54, 21, 68, 66, 25, 52, 55, 69, 48, 45, 68, 67, 71, 57, 62, 55, 12, 18, 63, 39, 15, 34, 64, 58, 34, 18, 29, 31, 48, 30, 59, 48, 20, 68, 35, 20, 60, 32, 53, 50, 35, 27, 43, 39, 82, 52, 16, 59, 70, 32, 30, 73, 33, 52, 65, 53, 16, 56, 52, 21, 55, 36, 17, 19, 64, 36, 5, 36, 58, 36, 50, 27, 45, 67, 64, 25, 49, 74, 65, 56, 13, 44, 36, 64, 45, 51, 11, 15, 15, 33
              |57, 75, 21, 65, 44, 52, 55, 56, 50, 73, 20, 36, 41, 65, 16, 33, 13, 82, 42, 5, 25, 18, 14, 51, 38, 40, 26, 31, 55, 25, 14, 68, 35, 19, 62, 22, 61, 66, 40, 69, 65, 20, 17, 21, 27, 23, 43, 65, 82, 17, 67, 82, 15, 80, 30, 85, 59, 54, 63, 4, 67, 90, 50, 59, 60, 52, 47, 47, 20, 43, 77, 17, 75, 56, 35, 8, 29, 43, 18, 94, 52, 57, 48, 84, 75, 76, 70, 14, 32, 65, 96, 75, 51, 31, 88, 65, 65, 13, 52, 21, 44, 61, 35, 56, 39, 53, 56, 72, 35, 30, 55, 49, 66, 39, 19, 82, 81, 74, 55, 58, 21, 83, 44, 52, 54, 65, 90, 41, 18, 20, 86, 70, 83, 29, 41, 82, 78, 58, 43, 92, 71, 57, 52, 16, 36, 59, 45, 12, 32, 32, 64, 68, 86, 64, 88, 98, 43, 72, 18, 9, 63, 39, 76, 39, 90, 68, 81, 30, 25, 26, 31, 76, 59, 58, 14, 44, 18, 36, 69, 65, 41, 78, 16, 5, 15, 5, 56, 47, 26, 34, 40, 7, 82, 51, 45, 81, 35, 25, 64, 47, 84, 66, 57, 72, 92, 16, 47, 51, 63, 33, 36, 20, 65, 73, 26, 27, 73, 51, 67, 77, 52, 57, 66, 88, 47, 85, 26, 37, 89, 55, 45, 41, 72, 81, 54, 36, 64, 48, 83, 23, 79, 81, 40, 86, 45, 40, 73, 65, 80, 83, 50, 16, 75, 73, 104, 81, 41, 69, 94, 67, 22, 91, 65, 56, 68, 75, 30, 34, 86, 26, 64, 59, 35, 20, 81, 10, 40, 49, 33, 31, 84, 45, 80, 49, 92, 53, 32, 94, 89, 36, 41, 68, 28, 79, 18, 41, 46, 45, 36, 63
              |64, 89, 49, 26, 57, 91, 9, 71, 30, 45, 81, 64, 56, 1, 66, 89, 60, 93, 69, 69, 88, 46, 60, 21, 33, 75, 89, 86, 43, 75, 64, 11, 39, 83, 17, 47, 75, 66, 25, 35, 45, 45, 56, 49, 44, 43, 43, 25, 84, 77, 63, 22, 59, 48, 47, 79, 42, 35, 74, 67, 84, 37, 76, 28, 40, 21, 39, 45, 57, 31, 65, 80, 60, 17, 30, 71, 35, 79, 59, 42, 22, 15, 91, 85, 76, 83, 51, 59, 36, 69, 48, 93, 13, 95, 44, 30, 72, 74, 13, 80, 64, 93, 91, 30, 56, 83, 9, 75, 43, 91, 86, 19, 68, 25, 82, 62, 20, 65, 46, 12, 62, 51, 22, 12, 22, 7, 36, 48, 64, 63, 43, 13, 29, 43, 38, 35, 23, 83, 90, 46, 33, 20, 12, 79, 92, 89, 67, 52, 36, 93, 32, 30, 97, 1, 59, 52, 46, 63, 76, 58, 82, 55, 61, 40, 46, 58, 36, 47, 52, 47, 75, 75, 49, 52, 67, 41, 80, 75, 95, 24, 48, 73, 57, 67, 78, 61, 71, 21, 55, 52, 44, 58, 23, 82, 34, 44, 42, 47, 9, 45, 34, 17, 80, 95, 41, 52, 40, 69, 39, 74, 99, 70, 14, 10, 77, 48, 27, 37, 27, 97, 34, 24, 17, 61, 32, 58, 65, 77, 52, 25, 75, 92, 9, 40, 30, 42, 65, 30, 84, 41, 34, 99, 40, 33, 25, 80, 17, 57, 48, 66, 26, 50, 96, 84, 53, 55, 46, 12, 49, 77, 43, 35, 55, 9, 5, 35, 73, 44, 70, 44, 9, 36, 76, 67, 28, 73, 61, 25, 49, 33, 74, 34, 82, 40, 58, 83, 38, 42, 45, 100, 73, 39, 36, 25, 53, 26, 64, 74, 74, 48
              |52, 78, 46, 39, 47, 83, 13, 60, 20, 31, 78, 56, 47, 13, 63, 85, 57, 80, 60, 69, 86, 45, 57, 13, 28, 67, 88, 81, 32, 70, 60, 25, 33, 82, 4, 50, 64, 54, 31, 21, 31, 47, 59, 52, 49, 45, 34, 38, 71, 74, 51, 18, 56, 35, 41, 65, 29, 24, 62, 66, 72, 28, 66, 15, 27, 13, 29, 55, 53, 39, 52, 81, 47, 29, 28, 71, 35, 71, 55, 33, 32, 27, 83, 72, 63, 71, 38, 62, 33, 57, 38, 81, 19, 93, 32, 16, 60, 72, 16, 77, 55, 83, 87, 42, 47, 74, 14, 63, 50, 88, 76, 15, 55, 26, 82, 48, 18, 52, 57, 24, 57, 37, 21, 15, 12, 7, 28, 39, 67, 67, 31, 6, 21, 48, 30, 23, 14, 73, 83, 35, 19, 9, 18, 78, 87, 79, 58, 53, 33, 90, 45, 17, 85, 12, 45, 41, 55, 50, 72, 56, 71, 46, 47, 48, 34, 45, 24, 53, 47, 42, 69, 62, 36, 40, 64, 32, 78, 68, 84, 10, 57, 60, 60, 67, 79, 60, 60, 29, 50, 45, 35, 57, 18, 73, 43, 31, 35, 42, 5, 35, 24, 31, 70, 84, 31, 54, 30, 59, 26, 67, 97, 65, 28, 14, 73, 54, 14, 48, 13, 86, 45, 36, 31, 47, 42, 44, 60, 70, 39, 14, 66, 86, 12, 27, 19, 35, 53, 21, 71, 40, 22, 88, 32, 24, 19, 73, 9, 44, 34, 52, 17, 48, 85, 72, 44, 41, 37, 6, 38, 66, 42, 27, 42, 14, 17, 22, 67, 51, 57, 40, 5, 24, 69, 63, 18, 72, 52, 17, 56, 33, 60, 25, 70, 50, 45, 74, 43, 33, 33, 98, 65, 25, 37, 16, 56, 33, 54, 65, 67, 35
              |51, 55, 42, 100, 44, 22, 82, 44, 67, 80, 20, 32, 42, 92, 26, 6, 33, 62, 32, 37, 22, 48, 32, 73, 58, 23, 28, 7, 63, 16, 29, 98, 53, 28, 82, 59, 48, 60, 72, 81, 72, 56, 55, 59, 64, 57, 54, 99, 68, 22, 63, 103, 33, 87, 45, 76, 68, 67, 51, 34, 49, 106, 34, 75, 69, 73, 59, 85, 34, 78, 73, 41, 75, 88, 61, 38, 57, 22, 32, 109, 85, 89, 16, 70, 64, 60, 74, 52, 55, 57, 108, 53, 80, 26, 99, 80, 55, 25, 79, 18, 37, 33, 6, 91, 41, 30, 83, 61, 72, 16, 31, 73, 59, 68, 34, 82, 104, 70, 93, 89, 29, 89, 70, 79, 74, 89, 106, 49, 55, 57, 98, 92, 102, 66, 56, 97, 97, 37, 10, 103, 84, 77, 80, 26, 4, 33, 36, 47, 55, 16, 99, 83, 65, 90, 91, 108, 81, 69, 20, 38, 44, 42, 75, 76, 102, 67, 95, 67, 39, 45, 17, 66, 63, 60, 26, 55, 23, 21, 43, 83, 79, 70, 54, 40, 37, 37, 44, 79, 36, 42, 51, 40, 103, 29, 81, 90, 50, 44, 88, 55, 99, 98, 38, 47, 106, 53, 58, 41, 73, 19, 26, 22, 96, 98, 14, 65, 90, 88, 83, 53, 88, 92, 98, 90, 83, 88, 26, 18, 97, 73, 29, 4, 97, 93, 69, 51, 58, 65, 69, 52, 94, 56, 54, 103, 67, 18, 94, 64, 87, 81, 69, 44, 50, 56, 117, 85, 50, 92, 104, 53, 51, 108, 66, 83, 96, 88, 19, 71, 82, 47, 88, 71, 18, 24, 98, 29, 38, 69, 71, 61, 78, 61, 66, 86, 98, 30, 68, 109, 100, 29, 26, 78, 59, 98, 56, 74, 40, 30, 21, 67
              |29, 52, 45, 65, 31, 65, 37, 38, 18, 7, 74, 43, 32, 41, 58, 75, 55, 54, 44, 71, 82, 50, 54, 26, 30, 52, 86, 72, 12, 62, 57, 52, 31, 80, 24, 61, 40, 28, 48, 8, 4, 56, 68, 63, 62, 55, 23, 64, 43, 70, 24, 37, 53, 14, 36, 38, 7, 12, 38, 67, 48, 33, 47, 14, 6, 25, 19, 75, 48, 59, 24, 83, 19, 53, 37, 74, 42, 55, 51, 35, 55, 52, 68, 44, 36, 44, 10, 70, 36, 31, 34, 56, 42, 89, 24, 12, 34, 70, 37, 72, 38, 63, 77, 66, 33, 55, 38, 36, 66, 81, 57, 30, 30, 41, 82, 22, 40, 24, 79, 50, 51, 17, 35, 36, 22, 35, 34, 27, 76, 76, 23, 31, 31, 62, 25, 24, 30, 51, 69, 29, 12, 22, 41, 75, 77, 59, 40, 58, 36, 83, 70, 13, 58, 40, 23, 34, 74, 22, 67, 57, 48, 33, 20, 66, 27, 18, 21, 67, 42, 40, 58, 35, 12, 16, 59, 22, 74, 54, 61, 18, 75, 32, 68, 70, 80, 61, 38, 50, 43, 35, 26, 59, 36, 54, 64, 16, 31, 41, 33, 21, 26, 57, 49, 60, 32, 63, 19, 38, 3, 55, 93, 59, 55, 41, 64, 67, 20, 70, 16, 61, 68, 61, 57, 24, 63, 21, 51, 57, 24, 18, 49, 73, 39, 18, 15, 30, 27, 20, 44, 46, 20, 62, 25, 31, 27, 58, 30, 17, 14, 26, 21, 51, 60, 46, 42, 17, 26, 32, 30, 40, 47, 36, 16, 38, 45, 14, 56, 67, 30, 40, 33, 7, 56, 57, 28, 70, 37, 24, 71, 44, 33, 21, 42, 71, 27, 55, 58, 35, 25, 94, 50, 4, 47, 29, 66, 52, 36, 48, 54, 9
              |58, 74, 25, 72, 46, 49, 62, 56, 55, 77, 14, 36, 43, 72, 15, 27, 15, 81, 41, 5, 18, 25, 16, 57, 43, 38, 19, 25, 59, 22, 14, 75, 40, 12, 67, 29, 61, 67, 47, 73, 69, 27, 23, 28, 34, 30, 47, 73, 82, 11, 69, 88, 17, 84, 34, 86, 63, 59, 63, 4, 66, 95, 49, 64, 64, 57, 51, 53, 22, 50, 79, 14, 78, 63, 42, 7, 36, 40, 20, 99, 59, 64, 44, 84, 76, 75, 73, 20, 37, 66, 101, 74, 58, 24, 92, 70, 66, 7, 58, 14, 44, 58, 29, 63, 41, 51, 62, 73, 41, 23, 52, 55, 67, 46, 13, 85, 88, 76, 62, 65, 21, 87, 50, 59, 59, 71, 95, 44, 22, 24, 91, 76, 89, 36, 45, 87, 84, 57, 39, 97, 76, 63, 59, 9, 30, 56, 45, 19, 37, 25, 71, 73, 85, 70, 91, 103, 49, 75, 13, 13, 62, 41, 79, 46, 95, 70, 86, 36, 28, 30, 29, 77, 62, 61, 13, 48, 11, 34, 67, 71, 48, 79, 22, 8, 10, 10, 56, 54, 28, 37, 44, 13, 88, 49, 52, 85, 39, 29, 70, 50, 89, 73, 56, 70, 97, 23, 51, 51, 67, 31, 29, 18, 72, 80, 21, 34, 79, 58, 72, 76, 59, 64, 73, 91, 54, 89, 25, 34, 94, 60, 43, 36, 78, 86, 58, 40, 65, 53, 83, 30, 85, 79, 44, 92, 51, 37, 79, 67, 84, 86, 55, 21, 73, 73, 109, 85, 44, 75, 98, 67, 28, 96, 68, 62, 75, 80, 28, 40, 88, 31, 70, 64, 33, 18, 86, 3, 41, 54, 39, 38, 86, 50, 80, 55, 96, 51, 39, 99, 93, 29, 39, 73, 35, 85, 24, 48, 47, 44, 34, 66
              |94, 119, 60, 23, 82, 108, 45, 98, 64, 87, 80, 83, 80, 47, 72, 93, 65, 124, 89, 62, 84, 52, 67, 56, 57, 92, 82, 90, 78, 83, 69, 38, 62, 77, 60, 39, 103, 100, 34, 77, 84, 42, 44, 39, 34, 41, 71, 24, 118, 77, 98, 67, 66, 92, 66, 116, 79, 71, 103, 64, 112, 83, 98, 67, 78, 56, 70, 13, 68, 23, 103, 67, 99, 29, 49, 63, 48, 96, 68, 88, 26, 31, 105, 120, 110, 115, 90, 47, 55, 101, 94, 121, 40, 88, 90, 72, 103, 73, 44, 81, 87, 113, 95, 16, 79, 104, 44, 109, 26, 90, 106, 51, 101, 42, 73, 103, 64, 103, 5, 34, 72, 94, 47, 45, 59, 52, 82, 74, 47, 45, 89, 59, 75, 32, 66, 80, 69, 107, 101, 92, 76, 60, 41, 75, 96, 110, 90, 51, 55, 91, 16, 73, 129, 47, 102, 98, 17, 100, 77, 60, 108, 78, 100, 21, 91, 95, 82, 30, 67, 62, 87, 110, 84, 86, 71, 70, 78, 90, 119, 67, 19, 110, 45, 59, 68, 60, 98, 31, 70, 73, 70, 58, 68, 102, 19, 88, 64, 61, 53, 75, 80, 32, 104, 121, 87, 44, 70, 94, 78, 87, 93, 77, 33, 54, 84, 33, 72, 11, 70, 125, 13, 22, 32, 104, 19, 101, 78, 91, 97, 63, 94, 100, 54, 85, 67, 65, 98, 63, 119, 50, 80, 127, 67, 79, 55, 95, 63, 92, 91, 107, 60, 55, 122, 115, 99, 97, 72, 58, 95, 108, 50, 80, 91, 44, 46, 80, 85, 26, 110, 59, 53, 75, 90, 75, 74, 70, 83, 58, 27, 44, 112, 64, 117, 12, 102, 104, 31, 88, 91, 92, 91, 81, 43, 71, 42, 31, 88, 94, 89, 85
              |21, 30, 34, 89, 18, 18, 65, 14, 45, 52, 39, 11, 18, 75, 29, 33, 33, 37, 5, 48, 46, 43, 32, 53, 42, 7, 51, 31, 36, 24, 31, 83, 36, 48, 61, 58, 18, 29, 62, 55, 44, 53, 59, 59, 62, 54, 31, 89, 39, 37, 33, 81, 31, 58, 29, 46, 41, 42, 21, 43, 22, 80, 5, 51, 43, 53, 36, 83, 28, 72, 43, 58, 45, 76, 48, 51, 47, 8, 28, 82, 75, 77, 20, 41, 35, 32, 45, 58, 41, 26, 81, 30, 66, 53, 72, 55, 25, 39, 63, 37, 10, 20, 35, 84, 18, 10, 66, 32, 70, 42, 12, 55, 28, 56, 53, 52, 82, 40, 90, 76, 25, 60, 54, 63, 53, 70, 81, 26, 63, 64, 70, 71, 77, 64, 35, 71, 74, 13, 23, 76, 59, 56, 66, 44, 34, 16, 7, 47, 41, 44, 91, 58, 41, 73, 62, 80, 80, 39, 34, 39, 17, 19, 45, 73, 74, 37, 68, 67, 27, 32, 17, 36, 35, 32, 31, 33, 41, 11, 25, 60, 79, 40, 58, 50, 53, 41, 14, 68, 24, 22, 30, 42, 80, 9, 75, 62, 33, 33, 68, 30, 74, 85, 12, 27, 80, 55, 35, 11, 46, 14, 54, 26, 83, 79, 26, 65, 66, 83, 59, 32, 82, 82, 85, 60, 77, 59, 20, 13, 69, 51, 1, 28, 77, 66, 46, 32, 28, 44, 40, 44, 68, 35, 33, 78, 49, 12, 72, 35, 59, 51, 48, 40, 30, 29, 89, 55, 28, 71, 76, 24, 44, 83, 36, 66, 79, 62, 17, 70, 51, 36, 68, 45, 13, 26, 74, 43, 13, 49, 72, 51, 47, 40, 37, 82, 68, 10, 63, 82, 72, 57, 5, 52, 51, 74, 58, 65, 12, 0, 11, 39
              |67, 90, 68, 49, 65, 101, 32, 76, 40, 38, 100, 76, 66, 25, 84, 106, 79, 92, 79, 91, 108, 67, 79, 35, 49, 87, 110, 102, 47, 91, 82, 33, 54, 104, 25, 71, 78, 66, 51, 30, 42, 69, 80, 74, 69, 67, 53, 48, 80, 96, 62, 4, 78, 37, 62, 72, 43, 41, 76, 88, 86, 13, 83, 32, 41, 35, 48, 72, 74, 57, 59, 103, 54, 43, 50, 93, 57, 90, 77, 18, 48, 41, 103, 81, 73, 82, 46, 83, 55, 70, 25, 94, 38, 115, 25, 28, 73, 94, 36, 99, 73, 100, 108, 56, 66, 92, 33, 74, 69, 109, 93, 37, 68, 48, 104, 53, 7, 61, 72, 38, 79, 38, 42, 35, 33, 22, 12, 58, 88, 88, 25, 16, 8, 68, 51, 17, 9, 89, 103, 26, 26, 30, 37, 100, 108, 96, 76, 75, 55, 112, 56, 26, 96, 26, 45, 30, 73, 59, 94, 78, 86, 65, 54, 66, 26, 56, 21, 73, 68, 64, 90, 72, 50, 54, 85, 51, 100, 88, 99, 24, 75, 69, 81, 89, 101, 82, 76, 47, 71, 65, 55, 79, 4, 91, 60, 31, 56, 64, 23, 53, 15, 40, 86, 98, 18, 76, 49, 75, 38, 88, 119, 87, 38, 17, 94, 74, 18, 64, 24, 99, 60, 50, 40, 48, 59, 45, 81, 90, 35, 34, 84, 106, 18, 26, 38, 56, 65, 41, 80, 62, 20, 100, 53, 11, 41, 92, 13, 56, 36, 57, 38, 70, 99, 84, 28, 44, 57, 17, 29, 79, 64, 9, 54, 33, 25, 25, 88, 71, 61, 62, 23, 38, 89, 85, 10, 94, 71, 38, 75, 55, 66, 45, 79, 66, 41, 92, 63, 18, 26, 120, 84, 34, 59, 9, 78, 52, 72, 83, 87, 47
              |46, 68, 7, 52, 32, 54, 37, 48, 32, 55, 35, 30, 30, 48, 21, 44, 14, 74, 36, 24, 42, 2, 15, 32, 19, 38, 44, 41, 38, 31, 18, 52, 17, 37, 42, 17, 53, 54, 25, 50, 48, 12, 21, 19, 21, 13, 27, 52, 71, 30, 54, 63, 14, 62, 16, 72, 42, 36, 54, 21, 60, 71, 45, 40, 42, 33, 30, 42, 14, 32, 62, 36, 60, 41, 17, 27, 11, 42, 16, 75, 38, 42, 52, 73, 64, 66, 53, 22, 13, 54, 77, 69, 34, 49, 69, 47, 55, 28, 34, 34, 35, 60, 46, 45, 28, 50, 38, 61, 29, 45, 53, 30, 54, 22, 38, 66, 63, 60, 49, 42, 19, 65, 25, 34, 35, 46, 71, 26, 28, 29, 68, 51, 64, 23, 24, 63, 59, 54, 49, 73, 52, 38, 34, 33, 47, 57, 38, 10, 13, 47, 53, 49, 79, 46, 71, 79, 39, 58, 30, 12, 56, 27, 61, 32, 72, 53, 62, 26, 14, 10, 34, 64, 43, 43, 21, 27, 34, 36, 66, 46, 38, 65, 21, 23, 34, 15, 48, 32, 17, 22, 24, 12, 63, 49, 35, 62, 18, 9, 45, 31, 65, 51, 52, 68, 73, 16, 29, 43, 45, 34, 53, 25, 49, 55, 33, 25, 54, 43, 48, 72, 43, 45, 51, 71, 37, 68, 24, 38, 71, 36, 41, 49, 53, 63, 35, 19, 52, 30, 72, 5, 60, 75, 23, 67, 26, 41, 54, 50, 62, 68, 31, 4, 70, 65, 85, 64, 25, 50, 75, 58, 4, 71, 50, 38, 51, 56, 32, 29, 71, 9, 45, 41, 36, 23, 62, 27, 31, 30, 31, 14, 70, 27, 69, 41, 75, 50, 22, 75, 70, 54, 38, 50, 12, 60, 19, 27, 37, 41, 35, 46
              |29, 21, 68, 107, 42, 53, 78, 30, 56, 41, 83, 50, 45, 84, 71, 77, 72, 17, 45, 89, 90, 76, 71, 66, 63, 51, 95, 75, 42, 68, 72, 95, 60, 92, 67, 91, 25, 21, 85, 50, 39, 86, 95, 93, 94, 85, 49, 106, 5, 80, 22, 78, 70, 42, 59, 7, 42, 50, 23, 84, 25, 69, 39, 56, 44, 65, 50, 111, 65, 97, 19, 100, 25, 94, 71, 92, 74, 51, 67, 68, 95, 93, 59, 4, 10, 13, 33, 95, 66, 20, 63, 25, 82, 97, 56, 55, 20, 82, 78, 81, 42, 44, 78, 106, 47, 43, 80, 13, 100, 86, 43, 70, 20, 77, 96, 26, 81, 19, 117, 91, 65, 42, 73, 77, 63, 78, 70, 48, 101, 102, 55, 74, 71, 95, 55, 61, 71, 36, 64, 59, 54, 64, 81, 87, 77, 42, 41, 83, 66, 87, 111, 55, 19, 82, 37, 60, 110, 21, 77, 78, 29, 47, 24, 102, 58, 25, 58, 99, 61, 64, 61, 10, 36, 34, 73, 50, 85, 55, 36, 61, 110, 11, 95, 90, 96, 81, 30, 89, 60, 52, 51, 80, 77, 43, 101, 48, 57, 65, 75, 45, 64, 100, 35, 33, 66, 90, 49, 35, 45, 58, 98, 69, 97, 84, 70, 98, 62, 108, 59, 29, 107, 102, 100, 34, 101, 35, 61, 57, 48, 59, 45, 69, 82, 53, 54, 56, 22, 57, 4, 75, 59, 29, 54, 69, 65, 55, 73, 28, 43, 22, 60, 75, 31, 17, 70, 35, 50, 75, 57, 20, 75, 74, 29, 80, 88, 54, 61, 101, 19, 65, 75, 47, 57, 68, 68, 85, 45, 62, 104, 77, 13, 55, 7, 109, 44, 43, 92, 68, 56, 100, 49, 46, 79, 70, 93, 89, 39, 44, 55, 36
              |34, 12, 64, 117, 43, 28, 90, 27, 68, 64, 66, 42, 44, 98, 59, 55, 64, 16, 35, 78, 71, 74, 62, 77, 69, 36, 77, 54, 55, 52, 62, 108, 63, 75, 83, 89, 23, 35, 91, 70, 58, 84, 89, 90, 93, 84, 55, 116, 28, 65, 39, 99, 62, 67, 58, 38, 58, 63, 25, 73, 14, 94, 26, 72, 60, 77, 59, 113, 59, 101, 45, 86, 49, 104, 76, 80, 76, 33, 59, 94, 103, 103, 34, 29, 30, 21, 55, 89, 69, 31, 91, 8, 92, 76, 82, 73, 28, 68, 89, 64, 37, 17, 56, 112, 46, 23, 92, 28, 100, 65, 21, 80, 33, 83, 81, 55, 102, 43, 120, 102, 56, 69, 81, 88, 76, 93, 95, 52, 93, 95, 81, 92, 93, 94, 61, 85, 92, 18, 40, 86, 74, 78, 92, 72, 54, 17, 34, 78, 69, 66, 120, 75, 17, 97, 66, 88, 110, 43, 62, 70, 16, 46, 50, 103, 84, 45, 82, 98, 57, 62, 45, 32, 51, 47, 61, 57, 68, 39, 7, 79, 110, 37, 89, 80, 82, 72, 27, 97, 55, 51, 56, 72, 98, 24, 105, 73, 60, 63, 91, 53, 88, 111, 20, 4, 92, 86, 58, 30, 63, 43, 76, 56, 109, 101, 53, 96, 83, 113, 77, 4, 112, 110, 111, 63, 106, 64, 50, 40, 76, 73, 31, 46, 99, 78, 68, 60, 35, 68, 28, 74, 82, 6, 59, 93, 74, 37, 92, 45, 68, 51, 72, 71, 2, 17, 98, 62, 54, 92, 85, 22, 74, 98, 47, 92, 103, 76, 46, 100, 49, 65, 91, 64, 41, 56, 90, 72, 41, 73, 102, 80, 43, 64, 27, 112, 73, 23, 93, 94, 82, 79, 35, 66, 81, 92, 89, 94, 36, 31, 40, 53
              |53, 69, 21, 71, 41, 45, 59, 51, 51, 72, 14, 31, 38, 69, 10, 26, 10, 76, 36, 9, 20, 22, 11, 53, 39, 34, 22, 24, 54, 18, 9, 73, 35, 16, 63, 28, 56, 62, 45, 69, 64, 26, 24, 28, 34, 28, 42, 71, 77, 10, 64, 84, 12, 79, 29, 81, 58, 54, 58, 4, 62, 91, 45, 59, 59, 53, 46, 54, 17, 49, 74, 19, 73, 61, 38, 11, 32, 36, 15, 95, 57, 62, 41, 79, 71, 71, 68, 22, 33, 61, 97, 70, 55, 27, 88, 66, 61, 7, 55, 14, 39, 54, 28, 62, 36, 47, 59, 68, 41, 24, 48, 51, 62, 43, 17, 80, 84, 71, 62, 63, 16, 82, 47, 55, 55, 68, 91, 39, 25, 27, 86, 72, 85, 36, 41, 83, 80, 52, 36, 92, 71, 59, 56, 12, 29, 52, 40, 17, 33, 26, 70, 69, 81, 67, 86, 98, 50, 69, 11, 10, 57, 36, 74, 46, 91, 65, 82, 37, 23, 26, 25, 72, 57, 56, 8, 43, 12, 30, 63, 66, 48, 74, 23, 11, 16, 7, 51, 52, 23, 32, 39, 10, 84, 45, 51, 80, 34, 25, 66, 45, 85, 71, 51, 66, 93, 23, 46, 46, 62, 27, 32, 13, 69, 76, 18, 34, 74, 58, 68, 71, 58, 63, 71, 86, 53, 84, 20, 30, 89, 56, 39, 34, 75, 81, 54, 35, 60, 49, 78, 26, 80, 74, 40, 88, 47, 33, 75, 62, 79, 81, 51, 18, 69, 68, 105, 80, 39, 72, 94, 62, 25, 92, 63, 59, 72, 75, 24, 41, 83, 27, 66, 59, 29, 14, 82, 6, 36, 50, 40, 35, 81, 45, 75, 55, 91, 47, 38, 95, 89, 32, 35, 68, 32, 81, 25, 46, 42, 40, 30, 61
              |60, 78, 23, 65, 47, 55, 56, 59, 52, 75, 22, 39, 44, 66, 19, 35, 16, 85, 45, 4, 26, 20, 17, 52, 40, 43, 26, 33, 58, 28, 17, 68, 38, 19, 63, 21, 65, 69, 40, 71, 68, 20, 15, 20, 26, 22, 46, 65, 85, 19, 70, 83, 18, 82, 33, 88, 62, 56, 66, 6, 71, 92, 53, 61, 62, 53, 49, 45, 23, 42, 79, 16, 78, 56, 37, 6, 30, 46, 21, 96, 52, 57, 51, 87, 78, 79, 73, 12, 34, 68, 98, 79, 52, 32, 90, 67, 68, 15, 52, 22, 47, 64, 37, 55, 42, 56, 56, 75, 33, 31, 58, 50, 69, 40, 18, 85, 82, 77, 53, 58, 24, 85, 45, 53, 55, 66, 92, 44, 15, 17, 88, 71, 85, 28, 43, 84, 79, 61, 46, 94, 73, 59, 52, 17, 38, 62, 48, 12, 34, 33, 63, 70, 89, 64, 90, 100, 41, 75, 20, 11, 66, 42, 79, 38, 92, 71, 83, 28, 28, 28, 34, 79, 62, 61, 17, 46, 19, 39, 72, 67, 40, 81, 14, 2, 14, 8, 59, 47, 29, 37, 43, 9, 83, 55, 44, 83, 37, 28, 65, 49, 86, 66, 60, 75, 94, 15, 49, 54, 65, 36, 36, 23, 65, 74, 28, 25, 75, 50, 69, 81, 51, 57, 66, 91, 46, 88, 29, 40, 92, 57, 48, 43, 72, 83, 56, 38, 67, 50, 86, 25, 81, 84, 43, 88, 47, 43, 74, 68, 82, 86, 52, 17, 78, 76, 106, 84, 43, 70, 96, 70, 23, 92, 68, 56, 69, 77, 33, 32, 89, 29, 65, 62, 38, 23, 82, 11, 43, 51, 31, 32, 87, 47, 83, 47, 95, 56, 31, 96, 91, 36, 44, 71, 29, 81, 16, 41, 49, 48, 39, 65
              |30, 56, 22, 53, 21, 56, 27, 37, 9, 31, 53, 29, 20, 36, 37, 58, 33, 61, 33, 48, 61, 26, 33, 15, 7, 40, 64, 55, 15, 43, 35, 45, 7, 58, 24, 38, 41, 36, 29, 26, 24, 33, 44, 40, 39, 32, 8, 53, 54, 49, 34, 45, 31, 38, 14, 53, 18, 12, 41, 44, 50, 49, 40, 17, 18, 15, 6, 55, 27, 40, 41, 60, 38, 40, 15, 51, 19, 44, 30, 52, 40, 40, 56, 56, 47, 52, 30, 46, 12, 38, 54, 59, 29, 69, 45, 23, 40, 48, 25, 52, 29, 57, 60, 50, 20, 48, 28, 45, 45, 62, 50, 17, 37, 21, 60, 43, 46, 40, 61, 38, 31, 41, 18, 25, 15, 32, 49, 12, 52, 53, 44, 34, 44, 40, 3, 40, 39, 48, 56, 49, 28, 19, 28, 54, 60, 54, 32, 34, 12, 64, 57, 26, 66, 34, 47, 55, 54, 37, 47, 34, 47, 19, 39, 46, 48, 32, 39, 45, 21, 17, 42, 46, 21, 22, 38, 6, 53, 40, 60, 25, 54, 46, 45, 47, 57, 38, 37, 34, 23, 17, 8, 35, 44, 47, 45, 38, 9, 18, 30, 11, 43, 48, 45, 60, 50, 39, 7, 34, 21, 40, 72, 39, 45, 41, 46, 44, 32, 52, 26, 63, 51, 47, 48, 47, 45, 44, 33, 43, 47, 14, 39, 58, 39, 39, 11, 8, 34, 7, 55, 22, 37, 66, 5, 46, 11, 45, 36, 29, 38, 46, 10, 27, 62, 52, 62, 40, 10, 34, 51, 45, 23, 50, 28, 28, 40, 33, 40, 46, 49, 16, 30, 17, 42, 37, 40, 48, 25, 11, 49, 22, 50, 3, 53, 52, 50, 48, 37, 52, 46, 74, 38, 26, 24, 40, 42, 33, 28, 38, 39, 23
              |45, 68, 53, 56, 45, 81, 30, 54, 23, 16, 84, 56, 46, 30, 68, 88, 64, 70, 58, 78, 92, 55, 64, 24, 35, 66, 95, 85, 26, 73, 66, 42, 38, 89, 16, 64, 56, 44, 46, 8, 20, 60, 72, 66, 63, 58, 34, 56, 58, 80, 40, 21, 62, 18, 45, 51, 21, 21, 54, 75, 64, 18, 62, 14, 19, 23, 29, 72, 58, 56, 38, 90, 33, 46, 39, 81, 46, 70, 61, 21, 50, 45, 82, 59, 52, 60, 24, 74, 41, 47, 23, 72, 36, 100, 16, 8, 50, 79, 32, 83, 52, 79, 90, 59, 47, 70, 31, 52, 66, 93, 72, 28, 46, 40, 91, 33, 24, 39, 75, 42, 62, 20, 34, 31, 20, 24, 19, 39, 80, 80, 14, 19, 15, 63, 33, 9, 14, 67, 83, 19, 4, 17, 35, 85, 90, 75, 55, 64, 41, 95, 63, 5, 74, 30, 28, 26, 72, 37, 78, 65, 64, 46, 33, 64, 18, 34, 8, 67, 52, 48, 71, 50, 28, 32, 69, 32, 84, 68, 77, 9, 73, 47, 72, 77, 88, 68, 54, 46, 53, 46, 37, 66, 20, 69, 60, 13, 40, 49, 22, 33, 12, 48, 64, 76, 19, 67, 30, 54, 16, 68, 103, 70, 45, 28, 76, 68, 5, 65, 6, 77, 63, 54, 48, 30, 59, 27, 63, 70, 21, 18, 64, 87, 26, 10, 20, 39, 43, 25, 59, 51, 6, 78, 35, 16, 29, 72, 16, 33, 17, 37, 23, 57, 76, 62, 31, 25, 38, 19, 22, 56, 52, 21, 31, 31, 33, 4, 69, 67, 41, 47, 22, 17, 70, 68, 12, 79, 51, 25, 71, 46, 45, 28, 58, 67, 27, 70, 58, 21, 16, 105, 64, 12, 49, 13, 69, 49, 51, 62, 67, 25
              |47, 68, 59, 63, 48, 83, 37, 56, 29, 15, 90, 61, 50, 36, 74, 92, 70, 69, 62, 84, 98, 62, 69, 31, 42, 70, 101, 89, 30, 78, 72, 47, 44, 95, 23, 71, 57, 44, 53, 11, 22, 66, 79, 73, 70, 65, 39, 62, 57, 86, 40, 24, 68, 14, 51, 49, 25, 26, 55, 81, 65, 15, 65, 21, 23, 30, 34, 79, 64, 63, 36, 97, 31, 53, 46, 87, 52, 73, 66, 17, 56, 51, 86, 58, 51, 60, 24, 81, 48, 48, 17, 72, 43, 105, 9, 14, 51, 85, 39, 88, 56, 81, 95, 66, 51, 73, 38, 51, 73, 98, 74, 35, 46, 47, 97, 30, 27, 38, 81, 48, 67, 15, 41, 38, 27, 30, 16, 44, 87, 87, 7, 24, 15, 70, 39, 6, 17, 69, 87, 13, 9, 25, 42, 91, 94, 77, 58, 70, 48, 100, 69, 11, 73, 36, 23, 19, 79, 36, 83, 71, 65, 50, 31, 71, 11, 34, 3, 75, 57, 54, 75, 49, 30, 34, 75, 38, 90, 72, 78, 16, 80, 46, 79, 84, 94, 75, 56, 53, 59, 51, 42, 72, 22, 72, 67, 8, 45, 55, 29, 37, 9, 54, 66, 77, 14, 74, 35, 56, 19, 73, 109, 75, 51, 32, 81, 75, 10, 72, 13, 77, 69, 60, 54, 25, 66, 23, 68, 74, 15, 25, 67, 91, 31, 3, 26, 45, 44, 31, 57, 57, 4, 78, 40, 14, 35, 76, 21, 34, 13, 34, 30, 64, 77, 62, 25, 21, 43, 25, 15, 57, 59, 19, 32, 38, 39, 4, 73, 74, 38, 53, 29, 21, 74, 73, 13, 85, 55, 31, 78, 53, 43, 34, 57, 74, 21, 73, 65, 17, 9, 110, 68, 14, 56, 16, 76, 56, 54, 66, 71, 27
              |18, 8, 53, 101, 28, 31, 74, 12, 51, 47, 62, 32, 31, 82, 52, 55, 55, 14, 26, 71, 68, 62, 53, 61, 54, 30, 74, 53, 38, 47, 54, 92, 49, 71, 66, 77, 7, 18, 76, 53, 41, 72, 79, 78, 81, 72, 40, 101, 17, 60, 22, 82, 53, 51, 45, 26, 41, 46, 8, 66, 3, 77, 18, 55, 43, 61, 43, 100, 48, 87, 29, 81, 33, 88, 62, 73, 62, 29, 50, 77, 88, 88, 36, 19, 16, 9, 38, 79, 55, 14, 74, 11, 77, 75, 66, 56, 11, 62, 73, 60, 25, 23, 56, 98, 32, 21, 76, 13, 88, 64, 21, 64, 16, 69, 76, 39, 85, 27, 107, 86, 47, 52, 66, 72, 60, 76, 78, 37, 84, 86, 64, 75, 76, 82, 46, 68, 75, 13, 41, 69, 57, 61, 76, 67, 54, 20, 22, 68, 55, 66, 105, 58, 19, 80, 50, 72, 98, 27, 57, 61, 7, 33, 34, 90, 68, 28, 65, 86, 46, 50, 40, 18, 34, 30, 54, 42, 64, 34, 17, 62, 97, 22, 79, 72, 76, 63, 12, 82, 43, 38, 41, 63, 81, 21, 91, 56, 46, 50, 74, 37, 71, 96, 12, 15, 75, 75, 42, 17, 46, 37, 76, 49, 93, 84, 49, 84, 66, 99, 60, 16, 98, 95, 96, 48, 92, 48, 42, 35, 60, 56, 24, 47, 82, 61, 51, 45, 18, 51, 18, 62, 65, 18, 44, 76, 59, 34, 75, 28, 52, 36, 55, 60, 15, 6, 82, 46, 39, 75, 69, 5, 62, 81, 30, 76, 86, 59, 40, 88, 35, 52, 74, 47, 36, 49, 73, 65, 29, 57, 90, 67, 30, 49, 16, 98, 58, 21, 80, 77, 66, 79, 28, 49, 67, 75, 78, 80, 22, 23, 34, 36
              |41, 67, 26, 42, 32, 66, 16, 48, 10, 35, 59, 39, 31, 26, 43, 65, 37, 72, 44, 50, 66, 26, 38, 6, 8, 50, 69, 62, 24, 51, 41, 34, 14, 62, 17, 34, 52, 46, 20, 27, 30, 30, 42, 36, 34, 28, 19, 42, 65, 54, 44, 38, 36, 41, 22, 62, 25, 17, 52, 47, 61, 46, 51, 16, 24, 7, 16, 47, 33, 31, 49, 62, 45, 29, 10, 52, 16, 54, 36, 50, 30, 29, 66, 66, 57, 62, 37, 44, 13, 48, 53, 70, 17, 73, 45, 23, 50, 53, 14, 58, 40, 68, 67, 40, 31, 59, 17, 55, 38, 68, 61, 6, 47, 12, 63, 50, 38, 48, 52, 27, 38, 44, 7, 14, 9, 23, 45, 23, 50, 50, 44, 26, 39, 34, 14, 38, 33, 59, 65, 49, 28, 13, 17, 58, 68, 65, 43, 34, 13, 70, 46, 25, 77, 24, 51, 55, 46, 46, 53, 37, 59, 30, 46, 38, 48, 41, 38, 39, 28, 22, 50, 56, 30, 32, 44, 17, 58, 50, 71, 21, 47, 55, 43, 48, 59, 40, 48, 24, 31, 27, 19, 37, 37, 57, 36, 40, 17, 23, 21, 22, 40, 37, 56, 72, 48, 37, 17, 45, 25, 49, 78, 46, 34, 32, 53, 39, 29, 43, 23, 74, 41, 36, 37, 52, 36, 49, 41, 52, 49, 11, 50, 67, 30, 39, 13, 17, 45, 9, 65, 21, 36, 77, 16, 42, 1, 55, 29, 38, 41, 53, 7, 29, 73, 63, 61, 45, 21, 25, 51, 56, 23, 46, 37, 17, 30, 33, 49, 39, 57, 20, 21, 21, 51, 44, 36, 52, 36, 5, 43, 16, 58, 11, 63, 43, 53, 59, 30, 50, 46, 78, 48, 29, 20, 35, 40, 24, 40, 49, 49, 31
              |74, 98, 40, 26, 62, 87, 33, 78, 47, 71, 61, 62, 59, 38, 52, 74, 45, 104, 68, 44, 66, 31, 46, 39, 38, 71, 65, 71, 60, 63, 49, 35, 42, 59, 46, 19, 83, 80, 16, 62, 66, 22, 26, 20, 14, 21, 52, 26, 99, 58, 79, 59, 46, 77, 45, 98, 61, 53, 83, 45, 91, 73, 77, 51, 60, 40, 51, 11, 47, 6, 85, 51, 82, 21, 30, 45, 28, 75, 48, 78, 16, 24, 84, 100, 91, 95, 73, 29, 35, 82, 83, 100, 26, 71, 77, 57, 83, 54, 30, 62, 66, 93, 75, 16, 58, 83, 32, 89, 8, 71, 85, 35, 81, 24, 57, 86, 57, 84, 17, 26, 51, 79, 30, 31, 43, 42, 73, 54, 32, 30, 76, 49, 65, 12, 46, 69, 59, 86, 81, 81, 62, 45, 27, 57, 77, 89, 69, 31, 35, 73, 23, 59, 109, 38, 87, 87, 10, 82, 58, 40, 88, 57, 83, 3, 79, 77, 69, 13, 46, 41, 66, 91, 65, 67, 51, 51, 59, 69, 98, 53, 11, 91, 27, 41, 52, 41, 78, 16, 49, 52, 50, 38, 60, 82, 4, 74, 44, 40, 42, 56, 69, 30, 84, 100, 77, 25, 51, 74, 62, 67, 76, 56, 30, 47, 64, 16, 59, 10, 56, 104, 11, 19, 30, 88, 7, 85, 57, 70, 83, 47, 74, 80, 46, 72, 49, 45, 79, 45, 100, 29, 67, 107, 47, 69, 37, 74, 53, 74, 76, 89, 43, 34, 102, 95, 89, 81, 52, 48, 83, 88, 29, 71, 73, 32, 39, 66, 64, 9, 93, 38, 42, 58, 69, 55, 64, 51, 62, 41, 13, 24, 94, 46, 97, 9, 88, 83, 10, 78, 78, 76, 70, 65, 23, 61, 24, 13, 68, 73, 68, 67
              |70, 94, 36, 28, 57, 83, 30, 74, 43, 68, 58, 58, 55, 37, 48, 70, 41, 100, 64, 41, 63, 27, 42, 36, 34, 67, 63, 67, 56, 59, 45, 35, 37, 56, 43, 16, 79, 76, 13, 59, 63, 18, 24, 17, 11, 17, 48, 28, 95, 54, 75, 58, 42, 73, 41, 94, 57, 50, 79, 42, 87, 71, 73, 48, 57, 37, 47, 15, 43, 6, 81, 49, 78, 21, 25, 43, 23, 71, 44, 76, 16, 23, 80, 96, 87, 91, 69, 27, 31, 77, 81, 96, 24, 69, 75, 54, 79, 51, 28, 58, 62, 88, 72, 18, 54, 79, 30, 85, 7, 68, 81, 32, 77, 20, 54, 82, 56, 80, 21, 25, 47, 76, 26, 29, 40, 40, 71, 49, 30, 29, 73, 47, 63, 9, 42, 66, 57, 82, 77, 78, 59, 42, 25, 54, 73, 85, 65, 27, 31, 70, 26, 56, 105, 36, 83, 84, 13, 78, 55, 36, 83, 53, 79, 5, 77, 73, 67, 11, 42, 37, 62, 87, 61, 63, 48, 47, 56, 65, 94, 50, 14, 87, 25, 38, 49, 37, 74, 15, 45, 48, 45, 35, 58, 77, 7, 71, 40, 36, 40, 51, 67, 31, 79, 96, 74, 22, 47, 69, 58, 63, 74, 52, 30, 46, 60, 14, 57, 14, 53, 100, 14, 20, 31, 85, 9, 82, 53, 66, 80, 43, 69, 76, 45, 69, 46, 41, 74, 41, 96, 25, 65, 103, 43, 67, 34, 70, 51, 70, 73, 85, 40, 30, 98, 90, 87, 78, 47, 46, 81, 83, 25, 70, 69, 30, 39, 63, 60, 9, 89, 34, 40, 54, 65, 51, 61, 48, 58, 37, 13, 19, 90, 42, 93, 13, 85, 79, 6, 76, 76, 73, 66, 61, 18, 59, 22, 10, 64, 69, 64, 63
              |54, 79, 49, 40, 49, 85, 15, 62, 22, 31, 81, 59, 49, 14, 65, 87, 60, 81, 62, 72, 89, 48, 60, 16, 30, 70, 91, 84, 33, 73, 63, 25, 35, 84, 6, 53, 65, 55, 33, 21, 32, 50, 62, 55, 51, 48, 36, 39, 71, 77, 51, 15, 59, 34, 44, 65, 30, 25, 64, 69, 74, 26, 68, 16, 28, 16, 31, 57, 55, 42, 52, 83, 47, 30, 31, 74, 37, 73, 58, 30, 34, 28, 86, 72, 64, 72, 38, 64, 36, 58, 35, 82, 21, 96, 30, 16, 61, 75, 18, 80, 57, 85, 89, 43, 49, 76, 16, 64, 52, 90, 78, 18, 56, 29, 85, 48, 16, 52, 59, 25, 60, 36, 23, 17, 15, 8, 25, 41, 70, 70, 29, 4, 18, 51, 33, 21, 12, 75, 86, 33, 19, 11, 20, 80, 90, 81, 60, 56, 36, 93, 46, 16, 86, 13, 44, 39, 58, 50, 75, 59, 73, 48, 48, 50, 32, 46, 22, 55, 50, 45, 72, 63, 37, 41, 66, 34, 80, 70, 86, 10, 59, 60, 62, 70, 81, 63, 62, 31, 52, 47, 37, 60, 15, 75, 45, 30, 38, 45, 6, 37, 21, 31, 72, 85, 29, 57, 32, 60, 26, 70, 100, 68, 29, 13, 75, 56, 12, 50, 13, 87, 47, 38, 31, 47, 44, 44, 62, 72, 37, 16, 68, 88, 11, 26, 21, 38, 54, 23, 72, 43, 20, 89, 35, 22, 22, 75, 6, 45, 34, 52, 20, 51, 86, 73, 42, 41, 39, 4, 36, 67, 45, 25, 43, 16, 17, 21, 70, 54, 57, 43, 6, 25, 72, 66, 16, 74, 54, 19, 58, 36, 60, 27, 70, 52, 43, 76, 46, 30, 31, 101, 67, 25, 40, 13, 59, 35, 56, 67, 69, 36
              |35, 57, 5, 59, 22, 46, 38, 37, 26, 47, 36, 20, 19, 49, 20, 42, 15, 63, 26, 30, 43, 13, 15, 30, 15, 30, 47, 39, 29, 28, 18, 55, 11, 40, 40, 28, 42, 43, 31, 44, 40, 23, 32, 30, 32, 23, 18, 58, 60, 31, 43, 61, 13, 54, 5, 62, 34, 29, 43, 26, 50, 67, 35, 35, 34, 30, 21, 52, 10, 40, 52, 43, 50, 46, 18, 34, 15, 34, 13, 70, 44, 47, 45, 62, 53, 55, 44, 32, 11, 43, 72, 59, 37, 51, 63, 41, 44, 30, 35, 35, 25, 51, 44, 52, 17, 41, 39, 51, 39, 45, 44, 29, 43, 25, 42, 57, 61, 50, 59, 46, 15, 57, 26, 35, 31, 46, 67, 16, 38, 39, 61, 49, 61, 33, 16, 58, 56, 44, 43, 67, 46, 35, 37, 36, 44, 48, 28, 20, 11, 47, 60, 44, 68, 47, 62, 73, 49, 48, 30, 17, 46, 17, 51, 42, 66, 43, 57, 37, 5, 1, 28, 54, 34, 33, 21, 18, 35, 29, 56, 42, 48, 55, 31, 30, 40, 21, 37, 38, 8, 11, 15, 19, 60, 40, 44, 55, 9, 1, 44, 21, 60, 56, 42, 58, 68, 27, 21, 32, 38, 27, 55, 22, 53, 55, 30, 35, 50, 52, 43, 62, 51, 51, 56, 62, 45, 60, 18, 31, 64, 31, 32, 44, 53, 56, 29, 10, 41, 24, 61, 13, 55, 65, 15, 63, 24, 34, 52, 40, 55, 58, 27, 12, 60, 54, 80, 56, 15, 49, 69, 47, 13, 68, 40, 39, 52, 50, 26, 39, 61, 4, 44, 34, 29, 20, 58, 31, 21, 26, 41, 20, 60, 21, 59, 50, 67, 41, 32, 70, 64, 56, 29, 43, 19, 57, 30, 34, 27, 32, 28, 37
              |45, 70, 18, 42, 33, 63, 22, 50, 20, 45, 50, 36, 31, 33, 35, 58, 28, 75, 42, 39, 57, 16, 29, 17, 9, 47, 59, 55, 31, 44, 32, 38, 13, 52, 28, 23, 54, 51, 15, 38, 39, 19, 31, 25, 24, 17, 22, 41, 70, 45, 50, 48, 28, 51, 18, 69, 33, 26, 54, 37, 63, 57, 51, 27, 33, 18, 22, 40, 26, 25, 57, 51, 53, 29, 1, 42, 5, 51, 28, 61, 28, 30, 62, 71, 62, 66, 45, 33, 7, 52, 64, 72, 20, 64, 56, 34, 54, 43, 19, 49, 39, 67, 60, 37, 30, 57, 23, 60, 29, 59, 60, 15, 52, 8, 53, 59, 47, 55, 46, 29, 31, 54, 10, 19, 21, 31, 56, 25, 39, 39, 55, 36, 50, 24, 17, 49, 44, 59, 60, 60, 39, 24, 20, 48, 61, 64, 42, 23, 7, 62, 44, 36, 80, 31, 61, 66, 38, 53, 44, 27, 60, 29, 54, 30, 59, 48, 49, 29, 22, 16, 45, 62, 37, 38, 35, 21, 49, 46, 71, 32, 38, 62, 31, 37, 49, 30, 50, 21, 25, 25, 21, 27, 48, 56, 30, 50, 16, 16, 30, 26, 51, 38, 56, 72, 59, 26, 22, 46, 35, 44, 68, 38, 36, 40, 46, 29, 40, 38, 34, 76, 36, 34, 38, 62, 30, 59, 35, 48, 60, 22, 48, 61, 38, 50, 23, 16, 49, 18, 70, 11, 47, 79, 18, 53, 12, 51, 39, 45, 51, 61, 18, 19, 74, 66, 72, 55, 23, 35, 62, 59, 12, 57, 44, 23, 36, 44, 43, 30, 65, 13, 30, 31, 47, 36, 47, 42, 35, 16, 33, 6, 65, 17, 68, 37, 64, 57, 21, 61, 57, 69, 46, 39, 9, 45, 28, 18, 40, 47, 45, 39
              |65, 90, 57, 33, 60, 96, 18, 74, 33, 42, 89, 69, 60, 9, 74, 96, 68, 93, 73, 78, 96, 55, 68, 25, 39, 80, 98, 93, 45, 82, 71, 17, 45, 91, 17, 57, 77, 66, 35, 32, 43, 55, 66, 59, 54, 52, 47, 32, 83, 85, 63, 12, 67, 44, 53, 77, 42, 37, 75, 76, 85, 28, 79, 28, 40, 25, 42, 55, 64, 41, 63, 89, 58, 27, 38, 80, 44, 84, 67, 33, 32, 25, 96, 84, 76, 83, 49, 69, 44, 70, 39, 94, 23, 103, 37, 28, 72, 83, 21, 88, 68, 97, 98, 39, 60, 87, 18, 75, 53, 99, 89, 25, 68, 34, 92, 59, 10, 64, 56, 22, 69, 46, 30, 21, 25, 9, 27, 52, 74, 73, 36, 8, 20, 53, 43, 27, 15, 86, 96, 39, 29, 22, 22, 88, 99, 93, 71, 62, 44, 101, 40, 27, 98, 10, 54, 44, 57, 62, 83, 66, 84, 59, 59, 50, 38, 58, 30, 57, 59, 53, 81, 74, 49, 53, 74, 45, 88, 81, 97, 21, 58, 72, 66, 76, 87, 69, 74, 31, 62, 57, 48, 66, 13, 86, 44, 39, 48, 54, 10, 48, 26, 24, 83, 97, 32, 62, 43, 72, 38, 80, 108, 77, 22, 1, 84, 59, 21, 47, 24, 99, 44, 33, 24, 56, 42, 53, 72, 83, 45, 27, 79, 98, 1, 34, 32, 48, 66, 34, 83, 50, 28, 101, 45, 24, 31, 85, 10, 56, 43, 63, 30, 58, 98, 85, 44, 51, 50, 8, 42, 78, 51, 25, 55, 18, 9, 30, 79, 55, 67, 51, 10, 36, 82, 75, 20, 81, 65, 29, 59, 42, 71, 38, 82, 50, 51, 87, 48, 33, 38, 108, 78, 37, 45, 17, 63, 37, 67, 78, 80, 47
              |74, 82, 49, 98, 64, 50, 88, 69, 79, 98, 18, 51, 61, 98, 34, 23, 38, 89, 54, 29, 10, 51, 38, 82, 68, 48, 7, 24, 80, 32, 35, 101, 64, 14, 92, 54, 73, 83, 73, 96, 90, 53, 46, 53, 59, 55, 69, 98, 94, 22, 85, 113, 40, 105, 57, 101, 85, 81, 76, 30, 76, 120, 59, 88, 86, 82, 74, 76, 44, 75, 96, 22, 96, 89, 67, 27, 61, 48, 41, 123, 85, 90, 44, 96, 90, 86, 93, 43, 62, 81, 124, 81, 84, 2, 115, 94, 80, 23, 84, 19, 59, 61, 22, 88, 59, 57, 88, 86, 65, 13, 58, 80, 82, 72, 16, 103, 113, 93, 84, 91, 40, 108, 76, 85, 84, 97, 120, 65, 42, 44, 114, 101, 114, 61, 69, 111, 109, 64, 38, 120, 99, 88, 85, 17, 24, 61, 59, 45, 62, 12, 96, 97, 93, 96, 112, 125, 72, 92, 24, 39, 71, 60, 97, 70, 118, 88, 110, 60, 50, 54, 38, 91, 82, 80, 33, 70, 18, 44, 71, 95, 70, 94, 45, 32, 21, 36, 69, 80, 49, 57, 66, 39, 113, 56, 77, 107, 62, 53, 96, 71, 113, 99, 65, 75, 121, 48, 73, 65, 89, 41, 4, 33, 97, 106, 29, 57, 103, 82, 96, 81, 83, 90, 99, 111, 79, 109, 41, 42, 115, 85, 54, 32, 104, 109, 82, 63, 81, 77, 95, 55, 108, 84, 67, 116, 76, 44, 104, 85, 106, 103, 80, 47, 78, 83, 133, 105, 65, 101, 121, 79, 54, 121, 86, 88, 101, 103, 39, 64, 105, 56, 96, 86, 41, 35, 111, 24, 58, 79, 62, 64, 102, 74, 92, 79, 117, 57, 64, 123, 116, 3, 50, 95, 61, 110, 48, 74, 62, 55, 44, 86
              |35, 61, 18, 49, 25, 58, 25, 41, 13, 37, 50, 30, 23, 35, 34, 56, 29, 66, 35, 43, 58, 21, 29, 15, 1, 41, 61, 53, 21, 42, 32, 43, 5, 54, 25, 32, 45, 41, 24, 31, 30, 27, 39, 34, 33, 26, 13, 49, 60, 46, 40, 46, 28, 43, 13, 59, 24, 17, 45, 40, 54, 52, 43, 21, 24, 15, 12, 50, 25, 35, 47, 55, 44, 36, 9, 46, 13, 45, 27, 56, 36, 36, 57, 62, 52, 57, 36, 40, 6, 43, 58, 63, 25, 66, 50, 27, 45, 45, 22, 49, 31, 60, 59, 45, 22, 50, 26, 50, 39, 60, 52, 15, 42, 16, 56, 49, 47, 46, 55, 35, 29, 46, 14, 22, 17, 32, 52, 16, 46, 47, 48, 35, 46, 34, 7, 44, 41, 51, 56, 54, 33, 20, 25, 50, 59, 56, 35, 29, 6, 62, 52, 30, 71, 33, 52, 60, 48, 43, 44, 30, 51, 22, 45, 40, 52, 38, 43, 39, 19, 14, 41, 52, 27, 28, 36, 12, 50, 41, 63, 28, 48, 52, 39, 42, 53, 33, 41, 29, 22, 18, 11, 31, 46, 49, 39, 43, 8, 14, 30, 17, 46, 45, 48, 64, 54, 34, 13, 37, 26, 40, 70, 37, 42, 41, 45, 38, 35, 47, 29, 67, 45, 42, 45, 53, 40, 50, 32, 43, 52, 17, 41, 58, 39, 43, 16, 8, 40, 10, 61, 16, 41, 70, 8, 49, 9, 46, 37, 35, 43, 52, 12, 22, 66, 57, 66, 46, 14, 34, 56, 49, 18, 53, 34, 26, 39, 37, 39, 40, 55, 12, 30, 23, 42, 35, 43, 45, 28, 12, 43, 16, 56, 8, 58, 47, 56, 50, 31, 56, 51, 71, 39, 31, 18, 42, 36, 28, 32, 41, 40, 29
              |30, 14, 68, 111, 43, 48, 83, 28, 60, 48, 80, 49, 45, 89, 69, 73, 72, 9, 43, 88, 86, 77, 70, 70, 66, 48, 92, 71, 46, 65, 71, 100, 62, 89, 72, 92, 23, 23, 88, 56, 45, 87, 95, 94, 95, 87, 52, 110, 5, 78, 26, 85, 70, 49, 60, 15, 47, 54, 22, 83, 20, 76, 36, 61, 49, 69, 53, 114, 65, 99, 26, 98, 31, 98, 74, 91, 76, 48, 66, 76, 99, 98, 53, 5, 13, 9, 39, 95, 68, 22, 71, 18, 86, 93, 64, 60, 20, 80, 82, 78, 41, 38, 74, 109, 47, 38, 84, 14, 102, 82, 38, 74, 22, 80, 94, 34, 88, 25, 120, 96, 64, 49, 76, 81, 67, 83, 78, 50, 101, 102, 63, 80, 77, 96, 57, 68, 78, 31, 59, 66, 60, 69, 86, 85, 72, 36, 39, 83, 68, 84, 115, 61, 11, 87, 45, 68, 112, 26, 75, 77, 25, 48, 31, 104, 65, 31, 65, 101, 61, 64, 58, 14, 40, 37, 71, 53, 82, 52, 29, 67, 112, 17, 95, 89, 94, 80, 28, 93, 59, 53, 54, 80, 84, 39, 104, 55, 59, 65, 81, 48, 71, 104, 30, 25, 74, 91, 52, 34, 50, 55, 94, 67, 102, 90, 67, 99, 69, 111, 64, 21, 110, 105, 104, 42, 104, 43, 59, 53, 56, 64, 42, 65, 88, 61, 59, 58, 25, 61, 5, 76, 66, 21, 56, 76, 69, 52, 79, 32, 50, 30, 64, 76, 23, 12, 78, 42, 52, 81, 65, 17, 76, 81, 34, 84, 93, 60, 58, 102, 27, 67, 81, 52, 54, 66, 75, 83, 45, 66, 105, 80, 21, 59, 6, 111, 52, 38, 94, 76, 64, 97, 46, 52, 81, 77, 94, 92, 38, 41, 52, 41
              |13, 34, 45, 80, 22, 51, 52, 22, 29, 20, 68, 34, 24, 58, 53, 66, 52, 36, 32, 69, 75, 52, 51, 39, 37, 40, 80, 63, 15, 53, 53, 69, 34, 75, 41, 66, 22, 9, 59, 26, 14, 61, 71, 68, 68, 60, 24, 79, 26, 64, 6, 55, 50, 25, 35, 23, 16, 23, 20, 64, 30, 50, 32, 30, 17, 38, 23, 85, 45, 70, 12, 81, 11, 67, 45, 72, 48, 43, 47, 51, 68, 66, 54, 28, 19, 26, 11, 72, 41, 13, 48, 37, 55, 83, 39, 30, 16, 65, 51, 66, 26, 46, 68, 79, 26, 39, 53, 18, 74, 73, 41, 43, 11, 51, 79, 18, 58, 10, 90, 64, 46, 27, 46, 50, 36, 52, 51, 24, 78, 79, 38, 49, 49, 69, 28, 41, 48, 35, 57, 43, 30, 37, 54, 71, 67, 42, 28, 60, 41, 75, 84, 31, 40, 56, 28, 47, 83, 8, 61, 56, 30, 26, 12, 75, 42, 3, 38, 74, 39, 40, 48, 18, 9, 7, 55, 24, 69, 43, 43, 36, 84, 17, 71, 70, 77, 60, 22, 62, 39, 30, 26, 58, 54, 39, 74, 30, 32, 41, 49, 19, 44, 73, 32, 42, 49, 66, 23, 24, 19, 45, 85, 52, 70, 59, 56, 73, 39, 82, 34, 42, 80, 75, 73, 26, 74, 25, 44, 45, 35, 33, 35, 62, 57, 34, 28, 31, 9, 30, 27, 50, 38, 44, 28, 49, 38, 46, 49, 1, 26, 19, 33, 52, 42, 28, 57, 21, 25, 50, 43, 22, 51, 54, 3, 53, 62, 32, 47, 75, 21, 41, 49, 21, 45, 51, 46, 67, 27, 35, 78, 51, 20, 29, 25, 82, 34, 39, 66, 51, 40, 87, 37, 22, 53, 48, 69, 62, 23, 34, 43, 10
              |81, 106, 49, 16, 69, 97, 32, 86, 51, 74, 72, 71, 67, 35, 62, 84, 55, 111, 77, 55, 77, 41, 57, 42, 44, 81, 76, 82, 65, 73, 59, 29, 49, 70, 47, 30, 91, 86, 21, 64, 70, 33, 37, 31, 25, 31, 58, 17, 105, 68, 85, 56, 56, 79, 54, 103, 65, 58, 91, 56, 99, 71, 86, 54, 64, 43, 57, 12, 57, 11, 90, 62, 86, 17, 36, 56, 36, 85, 58, 76, 13, 19, 94, 107, 97, 102, 77, 40, 43, 88, 82, 108, 27, 82, 77, 59, 90, 65, 31, 72, 75, 102, 86, 6, 66, 92, 31, 95, 18, 82, 94, 38, 88, 29, 67, 90, 54, 89, 12, 22, 61, 81, 34, 32, 46, 40, 70, 61, 42, 41, 76, 47, 63, 23, 52, 68, 57, 94, 91, 80, 63, 47, 28, 68, 87, 98, 78, 42, 43, 84, 12, 60, 116, 35, 89, 86, 15, 87, 69, 50, 96, 65, 87, 13, 79, 82, 69, 23, 56, 50, 76, 97, 70, 73, 62, 57, 70, 79, 107, 54, 17, 96, 38, 52, 63, 52, 86, 17, 59, 61, 57, 49, 57, 91, 7, 75, 52, 49, 41, 62, 68, 22, 92, 108, 75, 36, 57, 82, 65, 77, 87, 67, 23, 43, 74, 26, 59, 3, 57, 112, 0, 11, 22, 91, 6, 88, 67, 80, 84, 49, 83, 90, 43, 73, 53, 52, 85, 50, 106, 38, 67, 115, 54, 67, 42, 84, 51, 79, 78, 93, 47, 45, 110, 102, 88, 84, 59, 46, 83, 95, 39, 69, 78, 31, 35, 67, 74, 19, 97, 47, 41, 61, 79, 65, 62, 62, 71, 45, 22, 31, 99, 51, 103, 6, 89, 92, 21, 76, 78, 86, 80, 67, 31, 59, 35, 18, 76, 82, 78, 72
              |25, 25, 42, 97, 25, 13, 73, 16, 52, 57, 43, 19, 25, 82, 36, 35, 40, 32, 13, 54, 49, 51, 39, 61, 50, 12, 55, 33, 42, 29, 38, 91, 44, 52, 68, 66, 18, 31, 70, 60, 49, 61, 66, 67, 70, 62, 38, 97, 37, 42, 35, 87, 39, 62, 37, 45, 47, 49, 21, 49, 18, 86, 6, 58, 49, 61, 43, 91, 35, 80, 45, 63, 47, 84, 56, 57, 55, 10, 36, 87, 83, 85, 17, 39, 34, 29, 49, 65, 49, 28, 86, 24, 74, 55, 76, 62, 25, 44, 71, 41, 17, 12, 36, 92, 26, 2, 74, 31, 78, 44, 4, 63, 30, 64, 58, 54, 89, 42, 98, 83, 32, 64, 62, 70, 60, 78, 87, 34, 69, 71, 75, 78, 83, 72, 43, 76, 80, 7, 21, 80, 64, 63, 73, 49, 34, 8, 14, 55, 49, 46, 99, 64, 36, 80, 65, 85, 88, 41, 39, 47, 13, 27, 48, 81, 79, 40, 74, 75, 35, 40, 22, 36, 41, 37, 38, 40, 45, 16, 17, 66, 87, 40, 65, 56, 59, 48, 16, 76, 32, 30, 38, 49, 86, 1, 83, 67, 40, 41, 75, 37, 79, 93, 8, 20, 85, 62, 42, 15, 52, 19, 56, 32, 90, 86, 30, 73, 72, 91, 65, 26, 90, 90, 93, 63, 85, 62, 27, 16, 72, 58, 8, 27, 84, 71, 53, 40, 30, 51, 38, 52, 73, 29, 41, 84, 57, 14, 79, 38, 63, 52, 55, 48, 23, 26, 94, 59, 36, 78, 81, 23, 52, 89, 40, 74, 86, 67, 22, 78, 52, 44, 75, 51, 17, 32, 80, 48, 21, 57, 79, 59, 48, 48, 35, 90, 72, 2, 71, 87, 77, 59, 11, 57, 59, 81, 65, 73, 18, 8, 16, 44
              |43, 64, 56, 63, 44, 79, 37, 52, 26, 11, 86, 57, 46, 37, 70, 89, 66, 65, 58, 81, 94, 59, 66, 29, 39, 66, 98, 86, 26, 75, 69, 48, 41, 92, 22, 68, 53, 40, 52, 8, 17, 64, 76, 71, 68, 63, 35, 62, 53, 82, 36, 26, 65, 11, 48, 46, 21, 23, 51, 78, 61, 19, 61, 18, 19, 28, 30, 78, 60, 62, 33, 94, 28, 53, 44, 84, 50, 69, 63, 21, 56, 51, 82, 54, 47, 56, 20, 78, 45, 44, 21, 68, 42, 102, 11, 11, 47, 82, 38, 85, 52, 76, 91, 66, 47, 69, 38, 48, 71, 94, 70, 33, 42, 45, 94, 27, 30, 34, 81, 48, 64, 13, 39, 37, 25, 31, 20, 40, 84, 84, 10, 25, 19, 68, 36, 10, 19, 65, 83, 16, 6, 23, 41, 87, 90, 73, 54, 68, 45, 96, 69, 9, 69, 36, 21, 22, 78, 33, 80, 68, 61, 46, 28, 70, 14, 30, 7, 73, 54, 51, 71, 45, 26, 30, 72, 34, 86, 68, 74, 15, 79, 42, 77, 81, 91, 72, 52, 52, 55, 48, 38, 69, 25, 68, 66, 6, 42, 52, 29, 34, 13, 55, 62, 73, 18, 71, 31, 52, 15, 69, 105, 71, 52, 34, 77, 73, 11, 72, 12, 73, 69, 60, 55, 24, 65, 21, 64, 70, 15, 23, 63, 87, 33, 5, 23, 41, 40, 28, 54, 55, 7, 74, 37, 18, 33, 72, 23, 30, 11, 31, 28, 61, 73, 58, 29, 18, 39, 26, 17, 53, 56, 23, 28, 38, 40, 2, 70, 72, 35, 50, 29, 18, 70, 69, 16, 82, 51, 29, 77, 51, 40, 31, 53, 73, 20, 69, 64, 21, 12, 107, 64, 10, 54, 18, 74, 55, 50, 61, 67, 23
              |57, 77, 19, 60, 44, 56, 51, 57, 48, 71, 25, 37, 41, 61, 19, 38, 14, 83, 43, 9, 30, 15, 16, 48, 35, 42, 30, 35, 54, 29, 16, 63, 33, 24, 58, 17, 63, 66, 35, 66, 64, 16, 12, 16, 22, 18, 42, 61, 83, 22, 67, 78, 16, 78, 29, 85, 58, 52, 64, 9, 69, 87, 52, 56, 58, 48, 45, 42, 21, 38, 76, 21, 75, 51, 32, 11, 25, 46, 19, 91, 47, 52, 52, 85, 76, 77, 69, 11, 29, 66, 93, 77, 47, 36, 85, 63, 66, 18, 47, 25, 45, 64, 40, 51, 39, 55, 51, 73, 30, 35, 57, 45, 66, 35, 23, 81, 77, 74, 50, 53, 22, 81, 40, 48, 51, 61, 87, 40, 15, 17, 84, 66, 80, 24, 39, 79, 74, 60, 47, 89, 68, 54, 48, 21, 41, 62, 46, 7, 29, 37, 59, 66, 88, 59, 86, 95, 38, 72, 22, 8, 64, 39, 76, 34, 88, 67, 78, 25, 25, 25, 35, 77, 58, 57, 18, 42, 23, 39, 72, 62, 37, 78, 11, 7, 19, 6, 57, 42, 26, 34, 39, 6, 78, 54, 40, 78, 33, 24, 60, 46, 81, 61, 59, 74, 89, 11, 45, 52, 61, 36, 41, 23, 60, 69, 30, 22, 70, 46, 64, 80, 47, 52, 61, 87, 42, 84, 28, 40, 87, 52, 47, 45, 67, 79, 51, 34, 64, 46, 84, 20, 77, 83, 39, 83, 42, 43, 69, 64, 78, 82, 47, 13, 77, 75, 102, 80, 39, 65, 91, 68, 18, 87, 64, 51, 64, 73, 33, 29, 85, 24, 60, 57, 38, 23, 77, 15, 41, 46, 28, 27, 84, 43, 81, 44, 90, 55, 27, 91, 86, 41, 43, 66, 24, 76, 13, 36, 47, 47, 39, 61
              |74, 95, 35, 54, 61, 74, 54, 75, 58, 83, 40, 55, 58, 62, 38, 54, 33, 101, 62, 22, 43, 27, 34, 55, 46, 61, 40, 52, 67, 47, 35, 61, 46, 35, 64, 15, 80, 83, 36, 76, 76, 19, 8, 13, 17, 21, 56, 54, 100, 38, 83, 82, 34, 89, 45, 101, 70, 64, 82, 26, 87, 93, 71, 66, 70, 56, 58, 29, 38, 32, 91, 25, 89, 48, 40, 22, 34, 64, 38, 98, 43, 50, 70, 102, 93, 94, 82, 8, 40, 82, 102, 96, 48, 46, 94, 72, 83, 34, 50, 41, 62, 83, 55, 43, 56, 74, 54, 90, 20, 49, 76, 51, 83, 39, 31, 95, 81, 89, 37, 52, 41, 93, 45, 51, 59, 64, 93, 55, 5, 3, 93, 70, 86, 18, 52, 87, 80, 79, 65, 98, 77, 61, 49, 35, 57, 80, 64, 20, 40, 51, 50, 75, 106, 61, 99, 104, 25, 87, 39, 26, 83, 56, 90, 25, 97, 82, 87, 15, 42, 39, 53, 93, 72, 72, 36, 56, 38, 58, 90, 70, 23, 94, 8, 19, 26, 25, 75, 40, 44, 50, 53, 24, 82, 73, 32, 89, 47, 38, 64, 60, 88, 57, 77, 93, 96, 13, 58, 70, 73, 55, 51, 42, 57, 71, 48, 13, 77, 36, 72, 98, 38, 47, 57, 100, 34, 97, 46, 58, 98, 61, 66, 62, 70, 88, 61, 48, 81, 56, 101, 30, 85, 101, 52, 89, 50, 62, 74, 79, 90, 97, 56, 28, 96, 92, 109, 93, 54, 69, 101, 86, 29, 93, 79, 54, 64, 82, 52, 19, 100, 38, 64, 69, 57, 41, 84, 30, 59, 54, 16, 33, 100, 54, 98, 33, 102, 74, 23, 98, 95, 50, 62, 77, 29, 81, 10, 35, 65, 66, 57, 75
              |30, 18, 54, 108, 35, 16, 83, 21, 61, 62, 53, 31, 36, 92, 48, 43, 52, 24, 25, 66, 58, 63, 51, 71, 60, 24, 64, 42, 50, 40, 50, 101, 55, 63, 77, 78, 20, 34, 82, 67, 55, 73, 78, 79, 82, 74, 48, 108, 33, 52, 38, 95, 51, 66, 49, 43, 54, 57, 22, 61, 14, 92, 16, 66, 56, 70, 52, 103, 47, 91, 46, 74, 50, 95, 67, 68, 66, 21, 48, 93, 94, 95, 22, 35, 33, 25, 53, 77, 60, 30, 90, 16, 84, 64, 81, 69, 27, 55, 81, 51, 28, 6, 44, 103, 37, 11, 84, 30, 90, 53, 9, 73, 32, 75, 68, 56, 97, 43, 110, 94, 44, 68, 73, 81, 70, 87, 93, 44, 81, 83, 80, 87, 90, 83, 53, 83, 88, 8, 28, 85, 71, 72, 84, 59, 42, 5, 25, 67, 60, 54, 111, 71, 27, 90, 67, 89, 100, 43, 50, 59, 12, 38, 50, 93, 84, 44, 80, 87, 47, 52, 33, 35, 47, 43, 49, 50, 56, 27, 5, 74, 99, 39, 77, 68, 70, 60, 21, 88, 44, 42, 48, 61, 94, 12, 95, 72, 51, 53, 85, 46, 86, 104, 11, 9, 91, 75, 51, 23, 59, 30, 64, 44, 101, 95, 41, 85, 79, 103, 73, 15, 102, 101, 104, 65, 96, 64, 39, 27, 76, 67, 20, 34, 93, 76, 62, 51, 33, 61, 34, 64, 80, 18, 51, 90, 67, 24, 87, 43, 67, 53, 65, 60, 12, 21, 98, 62, 46, 87, 85, 22, 64, 96, 45, 84, 96, 73, 34, 90, 52, 55, 85, 59, 29, 44, 87, 59, 32, 66, 91, 71, 47, 57, 32, 102, 74, 11, 83, 93, 81, 67, 23, 63, 71, 88, 77, 85, 28, 20, 28, 50
              |14, 19, 42, 94, 20, 24, 68, 5, 46, 47, 51, 21, 21, 76, 41, 45, 44, 25, 15, 59, 58, 52, 42, 55, 46, 19, 64, 43, 34, 36, 42, 86, 40, 60, 61, 67, 7, 20, 68, 51, 40, 62, 68, 68, 71, 62, 33, 93, 27, 49, 24, 79, 42, 52, 35, 34, 38, 41, 9, 54, 11, 76, 7, 50, 40, 55, 37, 91, 38, 78, 33, 69, 36, 81, 53, 62, 53, 19, 39, 77, 80, 81, 28, 29, 23, 20, 38, 68, 46, 16, 75, 20, 69, 65, 66, 53, 14, 51, 66, 49, 14, 19, 46, 89, 23, 13, 69, 20, 78, 54, 14, 57, 18, 60, 65, 43, 81, 30, 98, 79, 36, 54, 58, 65, 54, 71, 77, 29, 73, 75, 65, 71, 74, 72, 38, 67, 72, 8, 32, 70, 55, 56, 69, 56, 45, 16, 12, 57, 46, 55, 97, 55, 30, 74, 54, 74, 88, 30, 46, 50, 7, 23, 37, 81, 69, 29, 64, 76, 35, 40, 29, 25, 31, 27, 43, 35, 53, 23, 19, 58, 87, 29, 68, 61, 65, 52, 5, 73, 33, 28, 33, 52, 78, 13, 82, 57, 37, 40, 69, 30, 70, 89, 5, 20, 75, 64, 36, 7, 43, 26, 66, 38, 86, 79, 38, 74, 63, 90, 57, 23, 89, 87, 89, 52, 83, 51, 31, 25, 62, 51, 13, 38, 77, 61, 46, 37, 19, 45, 28, 52, 64, 26, 36, 75, 51, 23, 71, 28, 53, 41, 49, 49, 21, 17, 84, 48, 31, 71, 70, 12, 52, 80, 30, 69, 80, 58, 29, 78, 41, 42, 69, 43, 25, 37, 71, 54, 18, 51, 80, 57, 37, 42, 25, 89, 61, 13, 71, 77, 66, 68, 17, 48, 58, 72, 68, 71, 13, 12, 23, 35
              |31, 51, 53, 73, 36, 69, 45, 40, 27, 3, 81, 49, 38, 48, 65, 81, 63, 52, 49, 79, 89, 58, 62, 34, 39, 57, 93, 78, 19, 68, 64, 59, 39, 87, 31, 70, 41, 27, 57, 13, 9, 65, 77, 72, 71, 64, 31, 72, 40, 77, 23, 40, 61, 6, 44, 32, 15, 21, 39, 75, 48, 32, 50, 22, 14, 33, 27, 84, 56, 68, 19, 91, 14, 61, 46, 82, 51, 60, 59, 32, 64, 60, 72, 40, 34, 42, 7, 78, 45, 31, 30, 55, 50, 97, 21, 18, 34, 77, 45, 79, 43, 65, 83, 74, 40, 58, 46, 34, 75, 88, 59, 38, 29, 49, 90, 14, 43, 21, 88, 57, 59, 9, 44, 44, 30, 41, 33, 34, 85, 85, 19, 37, 32, 71, 33, 23, 33, 53, 74, 24, 16, 30, 49, 83, 83, 61, 45, 67, 45, 90, 78, 18, 56, 46, 14, 29, 83, 19, 75, 66, 49, 39, 14, 75, 23, 17, 20, 76, 50, 48, 64, 32, 17, 20, 67, 30, 82, 60, 62, 24, 84, 28, 77, 79, 88, 69, 40, 59, 50, 42, 34, 67, 38, 57, 72, 11, 39, 49, 39, 28, 26, 65, 51, 60, 30, 72, 28, 42, 12, 61, 100, 66, 62, 46, 71, 76, 24, 79, 21, 60, 76, 69, 65, 15, 72, 12, 58, 62, 17, 27, 53, 78, 45, 16, 24, 38, 27, 29, 40, 55, 21, 61, 34, 31, 36, 63, 35, 18, 7, 18, 30, 59, 60, 45, 38, 8, 34, 37, 25, 40, 56, 36, 16, 46, 51, 15, 62, 76, 23, 48, 39, 16, 62, 64, 30, 78, 42, 32, 80, 53, 27, 30, 39, 80, 18, 58, 67, 32, 21, 101, 54, 9, 56, 32, 75, 60, 40, 52, 59, 13
              |41, 67, 38, 46, 36, 72, 17, 49, 9, 25, 70, 46, 36, 23, 54, 75, 48, 70, 49, 62, 77, 39, 49, 7, 19, 57, 80, 72, 21, 60, 52, 34, 23, 74, 7, 46, 53, 44, 30, 16, 23, 43, 55, 49, 46, 41, 23, 45, 61, 65, 41, 28, 47, 30, 31, 57, 19, 13, 52, 59, 62, 33, 55, 6, 18, 6, 18, 57, 44, 40, 43, 74, 39, 34, 22, 65, 29, 60, 46, 37, 36, 32, 73, 62, 54, 61, 29, 57, 25, 47, 40, 70, 22, 85, 33, 11, 49, 64, 17, 69, 44, 72, 77, 46, 36, 63, 19, 53, 49, 79, 65, 11, 45, 23, 75, 42, 29, 43, 60, 30, 48, 33, 17, 17, 3, 17, 33, 28, 63, 63, 31, 17, 27, 46, 20, 26, 22, 62, 73, 36, 16, 2, 21, 70, 77, 68, 47, 47, 25, 81, 51, 13, 75, 21, 41, 43, 56, 41, 64, 49, 60, 35, 39, 48, 35, 36, 25, 51, 38, 33, 59, 53, 26, 30, 55, 21, 69, 57, 73, 9, 57, 51, 55, 61, 72, 52, 49, 31, 40, 34, 25, 50, 27, 62, 45, 28, 25, 34, 15, 24, 27, 38, 59, 73, 35, 50, 19, 48, 17, 57, 89, 56, 35, 25, 63, 51, 16, 51, 11, 75, 48, 41, 38, 42, 44, 39, 50, 59, 37, 3, 55, 75, 23, 27, 8, 25, 43, 10, 62, 34, 23, 77, 22, 30, 12, 62, 19, 34, 30, 45, 7, 41, 74, 62, 48, 36, 26, 17, 39, 55, 35, 34, 33, 19, 27, 20, 57, 50, 49, 31, 15, 14, 59, 54, 24, 64, 41, 8, 54, 29, 52, 15, 60, 52, 42, 63, 41, 37, 34, 90, 54, 19, 32, 23, 52, 33, 43, 54, 56, 25
              |31, 18, 55, 109, 36, 16, 84, 22, 62, 63, 54, 32, 37, 93, 48, 43, 53, 25, 26, 66, 59, 64, 51, 72, 61, 24, 65, 42, 51, 40, 50, 102, 55, 63, 78, 78, 21, 35, 82, 68, 56, 74, 78, 79, 83, 74, 49, 109, 34, 53, 39, 96, 51, 67, 49, 44, 55, 58, 23, 61, 15, 93, 17, 67, 57, 71, 53, 103, 48, 92, 47, 74, 51, 96, 68, 68, 67, 21, 48, 94, 95, 96, 22, 36, 34, 26, 54, 77, 61, 31, 91, 16, 85, 64, 82, 70, 28, 56, 82, 52, 29, 5, 44, 104, 38, 11, 85, 31, 91, 53, 9, 74, 33, 76, 68, 57, 98, 44, 111, 95, 45, 69, 74, 82, 71, 88, 94, 45, 82, 84, 81, 88, 91, 84, 54, 84, 89, 9, 28, 86, 72, 73, 85, 59, 42, 5, 25, 67, 61, 54, 112, 72, 28, 91, 68, 89, 100, 44, 50, 59, 13, 38, 51, 94, 85, 45, 81, 88, 48, 53, 33, 36, 48, 44, 50, 51, 56, 28, 5, 75, 100, 40, 78, 68, 70, 60, 22, 89, 45, 43, 49, 61, 95, 13, 96, 73, 52, 54, 86, 47, 87, 105, 12, 9, 92, 75, 52, 24, 60, 31, 64, 44, 102, 96, 41, 86, 80, 104, 74, 15, 103, 102, 105, 66, 97, 65, 39, 28, 77, 68, 21, 34, 94, 77, 63, 52, 34, 62, 35, 65, 81, 18, 52, 91, 68, 25, 88, 44, 68, 54, 66, 61, 12, 22, 99, 63, 47, 88, 86, 23, 65, 97, 46, 85, 97, 74, 34, 91, 53, 56, 86, 60, 29, 44, 88, 60, 33, 67, 92, 72, 48, 58, 33, 103, 75, 11, 84, 94, 82, 67, 24, 64, 72, 89, 78, 86, 28, 21, 28, 51
              |44, 60, 17, 73, 32, 37, 57, 42, 46, 65, 16, 22, 29, 68, 1, 23, 7, 67, 27, 18, 23, 22, 6, 50, 35, 25, 27, 20, 47, 11, 3, 73, 31, 21, 60, 33, 47, 54, 46, 63, 57, 29, 30, 33, 38, 31, 36, 73, 68, 11, 55, 81, 7, 72, 23, 72, 52, 48, 49, 13, 53, 87, 35, 55, 53, 50, 40, 59, 11, 52, 65, 28, 65, 62, 36, 20, 31, 27, 8, 90, 59, 63, 34, 70, 62, 61, 61, 29, 30, 52, 91, 60, 55, 31, 82, 61, 52, 11, 54, 14, 30, 46, 25, 65, 28, 38, 58, 59, 46, 25, 39, 49, 53, 43, 25, 72, 81, 63, 67, 63, 8, 75, 45, 54, 52, 66, 87, 32, 33, 35, 81, 69, 81, 40, 35, 78, 76, 43, 30, 86, 66, 55, 55, 17, 26, 44, 31, 21, 30, 27, 73, 64, 72, 66, 79, 92, 55, 61, 9, 12, 48, 28, 66, 50, 85, 57, 76, 42, 17, 21, 16, 63, 50, 48, 1, 37, 16, 21, 54, 62, 54, 65, 30, 20, 24, 12, 42, 53, 16, 24, 33, 14, 81, 36, 55, 74, 29, 21, 64, 38, 80, 72, 42, 57, 88, 28, 40, 37, 56, 18, 35, 5, 70, 75, 12, 39, 70, 62, 63, 62, 62, 65, 72, 79, 57, 76, 11, 21, 82, 52, 30, 28, 73, 76, 49, 30, 52, 44, 69, 26, 75, 65, 34, 83, 44, 25, 72, 54, 73, 72, 47, 18, 60, 59, 100, 72, 32, 69, 88, 53, 25, 88, 55, 58, 71, 70, 15, 46, 74, 23, 64, 53, 20, 4, 78, 13, 27, 47, 46, 35, 72, 40, 66, 60, 84, 38, 41, 90, 83, 36, 26, 62, 33, 77, 31, 48, 33, 30, 21, 54
              |65, 91, 45, 19, 56, 90, 9, 72, 32, 51, 75, 62, 55, 11, 62, 85, 55, 95, 67, 62, 82, 40, 56, 22, 31, 73, 83, 81, 46, 71, 59, 11, 37, 76, 23, 39, 76, 69, 17, 41, 49, 38, 48, 41, 35, 35, 43, 18, 87, 71, 67, 32, 54, 55, 45, 83, 45, 38, 75, 61, 85, 46, 75, 32, 44, 23, 40, 36, 53, 21, 70, 72, 65, 8, 26, 64, 30, 77, 55, 51, 12, 6, 89, 88, 79, 86, 56, 51, 33, 71, 57, 94, 7, 89, 52, 36, 74, 69, 10, 75, 64, 92, 87, 21, 55, 83, 8, 78, 34, 85, 85, 19, 70, 19, 76, 68, 30, 69, 37, 4, 58, 58, 18, 11, 25, 15, 46, 48, 55, 54, 51, 22, 38, 34, 38, 43, 32, 83, 87, 55, 40, 24, 7, 73, 87, 89, 67, 46, 33, 88, 25, 37, 100, 10, 66, 61, 37, 67, 70, 52, 83, 54, 66, 30, 54, 62, 44, 38, 49, 43, 72, 79, 52, 55, 62, 42, 74, 73, 95, 30, 39, 77, 49, 59, 71, 55, 72, 12, 52, 50, 43, 52, 32, 81, 24, 51, 40, 43, 16, 46, 43, 13, 80, 96, 50, 44, 41, 69, 44, 71, 93, 65, 10, 19, 73, 40, 35, 28, 33, 98, 25, 16, 13, 68, 23, 64, 62, 74, 59, 28, 73, 88, 18, 48, 33, 41, 68, 32, 88, 36, 42, 101, 40, 42, 25, 78, 26, 60, 55, 72, 28, 44, 97, 86, 63, 61, 45, 21, 58, 79, 37, 44, 59, 8, 12, 43, 70, 35, 76, 40, 16, 40, 73, 63, 37, 67, 60, 26, 40, 27, 78, 34, 86, 30, 65, 83, 29, 51, 53, 93, 72, 45, 29, 34, 45, 18, 64, 73, 72, 52
              |92, 118, 62, 14, 81, 109, 40, 97, 61, 82, 85, 83, 79, 40, 75, 97, 68, 122, 89, 67, 89, 53, 69, 51, 55, 93, 88, 94, 75, 86, 72, 30, 60, 82, 54, 42, 102, 97, 33, 72, 79, 45, 49, 43, 37, 44, 69, 15, 116, 81, 95, 59, 69, 86, 66, 113, 75, 67, 102, 68, 111, 75, 98, 63, 74, 52, 67, 20, 69, 23, 100, 73, 95, 23, 48, 68, 48, 97, 71, 80, 21, 25, 107, 117, 108, 113, 86, 52, 54, 99, 86, 120, 35, 94, 83, 67, 101, 78, 39, 85, 87, 114, 99, 11, 78, 104, 38, 106, 30, 94, 107, 47, 98, 40, 79, 98, 56, 99, 14, 28, 74, 89, 44, 40, 55, 45, 74, 72, 53, 52, 82, 52, 67, 35, 64, 73, 62, 107, 104, 85, 71, 55, 36, 80, 100, 111, 90, 54, 54, 96, 7, 68, 127, 40, 97, 91, 24, 97, 81, 63, 108, 77, 96, 25, 84, 92, 75, 35, 68, 62, 89, 107, 81, 83, 74, 68, 82, 91, 119, 61, 26, 106, 50, 64, 74, 64, 97, 28, 71, 73, 68, 61, 60, 103, 20, 82, 63, 62, 47, 73, 73, 23, 104, 120, 79, 48, 68, 93, 74, 89, 99, 79, 25, 46, 87, 38, 65, 13, 64, 124, 13, 16, 23, 99, 18, 95, 79, 93, 90, 58, 95, 103, 46, 79, 63, 64, 96, 60, 116, 51, 73, 127, 65, 71, 52, 96, 56, 89, 86, 102, 57, 57, 122, 113, 91, 92, 70, 51, 88, 106, 51, 72, 88, 38, 38, 74, 87, 31, 106, 59, 47, 70, 91, 78, 67, 74, 83, 54, 33, 44, 108, 62, 114, 16, 96, 104, 33, 80, 84, 98, 92, 76, 44, 64, 47, 29, 88, 95, 90, 81
              |12, 37, 27, 73, 3, 39, 47, 17, 25, 33, 49, 16, 5, 56, 34, 48, 33, 42, 16, 50, 56, 36, 32, 34, 26, 25, 61, 45, 16, 35, 34, 65, 21, 56, 41, 51, 21, 20, 48, 35, 25, 45, 54, 52, 54, 45, 12, 73, 38, 45, 21, 60, 31, 40, 18, 39, 21, 22, 21, 46, 30, 60, 21, 31, 23, 34, 16, 72, 26, 59, 31, 62, 30, 60, 33, 53, 34, 28, 28, 62, 60, 60, 40, 40, 30, 33, 27, 55, 27, 20, 62, 39, 49, 64, 52, 35, 21, 46, 45, 47, 10, 38, 50, 70, 7, 29, 48, 28, 61, 55, 31, 37, 21, 40, 60, 37, 62, 28, 79, 59, 27, 42, 38, 45, 34, 51, 61, 8, 61, 62, 51, 51, 57, 55, 17, 51, 54, 28, 42, 56, 38, 36, 48, 52, 50, 34, 13, 43, 27, 57, 76, 37, 47, 54, 45, 61, 70, 26, 42, 38, 27, 7, 31, 62, 55, 22, 48, 59, 21, 23, 30, 31, 16, 14, 36, 14, 50, 27, 40, 39, 70, 32, 54, 51, 58, 41, 17, 53, 20, 12, 13, 40, 59, 28, 63, 43, 18, 24, 49, 10, 53, 68, 25, 40, 60, 50, 15, 14, 26, 28, 67, 34, 65, 59, 38, 58, 45, 71, 39, 43, 69, 67, 68, 44, 64, 42, 25, 29, 50, 31, 22, 45, 57, 46, 26, 17, 18, 25, 39, 34, 48, 46, 16, 58, 31, 30, 52, 19, 40, 38, 29, 35, 42, 33, 70, 39, 11, 51, 57, 26, 35, 63, 20, 48, 60, 42, 29, 61, 40, 25, 49, 25, 29, 32, 54, 48, 9, 30, 64, 38, 38, 21, 36, 70, 51, 29, 53, 62, 53, 69, 22, 32, 40, 54, 53, 52, 9, 20, 26, 21
              |42, 56, 21, 79, 31, 32, 61, 39, 49, 66, 15, 20, 29, 72, 5, 18, 12, 63, 24, 22, 22, 27, 11, 53, 39, 20, 27, 15, 48, 5, 9, 77, 34, 23, 63, 39, 44, 52, 51, 64, 58, 35, 36, 39, 44, 37, 37, 78, 65, 11, 54, 84, 12, 73, 26, 70, 52, 50, 46, 17, 49, 89, 31, 57, 54, 53, 42, 65, 14, 57, 64, 31, 64, 67, 41, 25, 36, 22, 11, 92, 64, 68, 28, 67, 59, 58, 61, 35, 34, 50, 93, 56, 59, 30, 83, 63, 49, 13, 58, 13, 28, 40, 21, 71, 27, 33, 62, 56, 52, 22, 34, 52, 51, 47, 27, 71, 85, 61, 73, 68, 9, 76, 49, 58, 55, 69, 89, 33, 38, 40, 82, 73, 84, 46, 37, 80, 79, 39, 24, 88, 67, 58, 60, 18, 21, 38, 28, 27, 34, 24, 79, 66, 67, 70, 79, 93, 61, 60, 9, 18, 44, 27, 65, 56, 86, 56, 78, 48, 19, 24, 11, 61, 50, 48, 6, 38, 16, 16, 49, 65, 60, 63, 35, 25, 27, 18, 39, 58, 17, 25, 34, 20, 84, 31, 60, 75, 31, 24, 68, 39, 82, 77, 38, 52, 90, 34, 41, 34, 57, 13, 33, 1, 75, 78, 7, 45, 72, 68, 65, 58, 68, 71, 77, 78, 62, 76, 9, 16, 83, 54, 25, 23, 77, 77, 51, 32, 50, 47, 66, 31, 77, 61, 36, 86, 47, 19, 75, 53, 73, 71, 50, 23, 55, 55, 101, 72, 33, 72, 89, 50, 30, 90, 54, 62, 76, 72, 10, 51, 73, 27, 68, 54, 15, 3, 80, 16, 26, 50, 52, 40, 70, 43, 63, 66, 85, 33, 47, 92, 84, 35, 21, 63, 38, 80, 37, 53, 31, 26, 16, 54
              |52, 78, 29, 32, 42, 74, 12, 58, 21, 45, 60, 47, 40, 22, 46, 69, 39, 82, 52, 48, 67, 25, 40, 13, 16, 57, 69, 66, 35, 55, 43, 27, 22, 62, 21, 28, 62, 57, 10, 36, 40, 25, 37, 31, 27, 23, 29, 32, 75, 56, 55, 39, 39, 50, 29, 73, 35, 28, 62, 47, 71, 50, 60, 25, 35, 14, 27, 37, 37, 21, 60, 60, 56, 19, 10, 51, 15, 61, 39, 55, 19, 19, 73, 77, 67, 73, 47, 40, 17, 59, 59, 80, 9, 74, 52, 31, 61, 54, 8, 60, 48, 77, 71, 29, 39, 67, 12, 66, 29, 70, 69, 9, 58, 4, 62, 60, 38, 59, 41, 18, 42, 53, 4, 9, 17, 21, 50, 33, 45, 45, 51, 27, 43, 26, 24, 44, 36, 68, 71, 56, 36, 19, 9, 59, 72, 73, 51, 32, 17, 72, 35, 33, 87, 20, 61, 62, 36, 57, 55, 37, 68, 38, 57, 28, 54, 52, 44, 31, 33, 27, 56, 67, 40, 43, 46, 28, 59, 57, 80, 27, 37, 66, 38, 46, 58, 40, 58, 13, 36, 35, 28, 37, 39, 66, 25, 48, 25, 27, 21, 33, 45, 28, 65, 81, 53, 33, 28, 54, 35, 55, 79, 49, 25, 30, 57, 32, 34, 32, 30, 84, 30, 26, 28, 62, 25, 59, 46, 58, 57, 20, 58, 72, 28, 46, 23, 25, 55, 20, 76, 21, 42, 87, 25, 46, 12, 62, 31, 49, 50, 63, 17, 29, 83, 73, 66, 55, 31, 26, 58, 66, 22, 49, 48, 12, 25, 40, 54, 30, 67, 24, 21, 32, 57, 47, 40, 52, 44, 15, 35, 12, 69, 21, 74, 33, 62, 67, 22, 55, 53, 79, 56, 38, 16, 38, 34, 13, 49, 57, 56, 42
              |25, 39, 57, 85, 35, 62, 57, 33, 36, 17, 81, 47, 38, 61, 66, 79, 65, 39, 45, 82, 89, 64, 64, 45, 47, 53, 94, 76, 24, 67, 66, 72, 45, 88, 44, 77, 32, 18, 67, 26, 17, 72, 83, 79, 79, 71, 35, 84, 26, 77, 14, 54, 63, 17, 47, 18, 22, 30, 30, 77, 38, 45, 44, 34, 23, 44, 33, 94, 58, 78, 6, 94, 2, 73, 54, 85, 59, 55, 60, 44, 75, 72, 66, 27, 21, 30, 10, 84, 51, 22, 40, 43, 61, 96, 32, 31, 25, 78, 57, 79, 40, 56, 81, 85, 40, 51, 58, 22, 84, 87, 52, 49, 20, 59, 92, 5, 57, 8, 99, 70, 59, 18, 54, 56, 42, 54, 46, 36, 90, 91, 31, 50, 46, 79, 39, 37, 47, 45, 69, 35, 29, 42, 61, 84, 80, 53, 41, 72, 51, 89, 90, 31, 42, 59, 16, 38, 93, 8, 75, 69, 40, 39, 1, 84, 34, 10, 34, 84, 52, 52, 61, 19, 19, 19, 68, 35, 82, 56, 52, 37, 93, 15, 83, 82, 91, 72, 33, 70, 52, 43, 38, 71, 52, 51, 83, 24, 44, 53, 52, 31, 40, 77, 43, 49, 42, 78, 33, 36, 22, 58, 99, 66, 75, 60, 69, 84, 38, 90, 35, 48, 87, 81, 77, 14, 82, 13, 57, 58, 25, 38, 48, 74, 58, 29, 34, 43, 19, 38, 27, 61, 34, 49, 39, 45, 46, 59, 49, 13, 18, 6, 40, 64, 49, 33, 48, 11, 37, 51, 34, 30, 62, 49, 12, 58, 64, 29, 60, 85, 10, 53, 52, 26, 59, 64, 43, 80, 41, 43, 88, 61, 13, 38, 26, 90, 23, 51, 76, 44, 32, 101, 50, 22, 64, 46, 81, 71, 37, 47, 56, 16
              |14, 13, 53, 97, 27, 38, 70, 13, 47, 40, 66, 33, 30, 77, 54, 59, 56, 16, 28, 72, 72, 61, 55, 57, 51, 34, 78, 58, 33, 50, 55, 87, 46, 74, 60, 76, 8, 11, 74, 47, 35, 71, 79, 78, 80, 71, 37, 97, 13, 63, 15, 76, 54, 43, 44, 20, 35, 41, 6, 67, 11, 70, 22, 49, 37, 56, 39, 98, 49, 85, 22, 83, 26, 85, 59, 75, 60, 34, 51, 70, 85, 84, 42, 15, 9, 7, 31, 79, 53, 8, 67, 17, 73, 79, 58, 50, 5, 65, 69, 64, 25, 30, 61, 95, 31, 27, 71, 6, 87, 69, 27, 60, 9, 66, 79, 31, 78, 19, 105, 82, 48, 45, 62, 68, 55, 71, 71, 34, 85, 86, 57, 69, 69, 81, 42, 61, 68, 20, 47, 62, 51, 56, 72, 70, 60, 27, 24, 68, 53, 70, 101, 51, 21, 75, 43, 65, 96, 19, 60, 62, 13, 32, 26, 88, 61, 21, 58, 85, 46, 49, 44, 11, 28, 25, 56, 38, 67, 38, 24, 56, 96, 15, 79, 74, 79, 64, 13, 78, 44, 37, 38, 64, 75, 27, 89, 49, 44, 50, 69, 33, 64, 91, 18, 22, 68, 75, 38, 18, 40, 41, 81, 52, 88, 79, 53, 84, 59, 97, 54, 22, 95, 91, 91, 40, 89, 40, 44, 39, 52, 51, 28, 53, 77, 54, 46, 43, 12, 47, 14, 60, 58, 24, 41, 69, 55, 38, 69, 21, 44, 29, 51, 60, 22, 8, 75, 38, 36, 70, 61, 3, 61, 74, 23, 71, 81, 52, 43, 87, 28, 51, 69, 41, 40, 51, 67, 68, 29, 53, 89, 64, 23, 45, 11, 96, 50, 27, 79, 70, 58, 83, 32, 43, 66, 68, 78, 77, 23, 27, 38, 30
              |31, 38, 66, 95, 42, 65, 67, 37, 46, 25, 88, 53, 45, 70, 73, 84, 73, 36, 51, 90, 95, 73, 72, 55, 56, 58, 100, 82, 34, 73, 74, 82, 54, 96, 53, 87, 35, 22, 77, 35, 27, 81, 92, 89, 88, 81, 44, 94, 22, 84, 19, 62, 71, 24, 56, 12, 32, 40, 32, 85, 38, 51, 48, 44, 33, 54, 43, 104, 66, 88, 9, 102, 11, 83, 64, 93, 68, 60, 68, 49, 85, 82, 69, 22, 20, 28, 20, 93, 61, 25, 44, 42, 71, 103, 38, 40, 27, 85, 67, 86, 46, 58, 86, 95, 47, 54, 68, 22, 94, 93, 54, 59, 23, 69, 99, 9, 65, 12, 108, 79, 67, 24, 64, 66, 51, 64, 52, 45, 99, 100, 37, 59, 53, 89, 49, 44, 55, 47, 73, 40, 38, 51, 70, 91, 85, 55, 46, 81, 61, 94, 100, 40, 38, 69, 18, 41, 102, 13, 82, 77, 41, 47, 10, 94, 39, 18, 41, 94, 60, 61, 67, 17, 28, 28, 75, 44, 89, 62, 51, 47, 103, 13, 92, 91, 98, 81, 37, 80, 60, 51, 47, 79, 60, 54, 92, 30, 53, 62, 62, 40, 47, 87, 45, 49, 48, 87, 43, 41, 32, 64, 105, 73, 84, 69, 76, 93, 46, 99, 44, 46, 97, 91, 87, 15, 92, 16, 64, 64, 29, 48, 53, 79, 67, 36, 44, 52, 24, 48, 22, 70, 42, 47, 48, 51, 56, 64, 57, 21, 25, 4, 50, 73, 48, 32, 51, 17, 46, 60, 38, 31, 71, 56, 21, 68, 74, 37, 66, 95, 0, 62, 62, 36, 64, 71, 51, 88, 47, 52, 98, 71, 6, 48, 23, 100, 25, 54, 86, 49, 37, 107, 56, 31, 73, 54, 90, 80, 43, 51, 61, 26
              |34, 59, 14, 52, 23, 54, 29, 39, 16, 40, 46, 27, 21, 39, 30, 52, 25, 65, 32, 39, 54, 17, 25, 19, 5, 37, 57, 49, 23, 38, 28, 46, 2, 50, 30, 30, 44, 41, 26, 34, 32, 25, 36, 32, 32, 24, 13, 51, 60, 42, 40, 51, 24, 46, 9, 59, 26, 20, 44, 36, 52, 57, 40, 25, 27, 20, 14, 50, 20, 36, 48, 52, 45, 39, 11, 42, 12, 42, 23, 60, 38, 39, 53, 61, 52, 56, 38, 37, 4, 42, 62, 62, 29, 61, 54, 31, 44, 40, 26, 45, 29, 57, 54, 47, 20, 47, 30, 50, 38, 55, 49, 19, 42, 18, 52, 51, 51, 46, 56, 38, 25, 49, 17, 26, 21, 36, 57, 14, 44, 44, 52, 39, 51, 33, 8, 48, 45, 48, 52, 58, 37, 25, 28, 46, 54, 53, 32, 26, 4, 57, 54, 34, 70, 37, 55, 64, 48, 44, 40, 26, 49, 19, 46, 40, 56, 39, 47, 38, 15, 9, 37, 52, 28, 29, 31, 12, 46, 37, 61, 32, 48, 52, 36, 38, 49, 29, 39, 31, 17, 15, 10, 27, 50, 46, 40, 47, 5, 10, 34, 17, 50, 48, 46, 62, 58, 31, 14, 35, 29, 36, 65, 33, 45, 45, 40, 37, 40, 48, 33, 65, 47, 45, 48, 56, 41, 53, 27, 39, 56, 21, 38, 54, 43, 47, 19, 6, 39, 14, 60, 14, 45, 68, 8, 53, 14, 42, 42, 36, 46, 53, 16, 19, 64, 55, 70, 49, 12, 39, 60, 48, 15, 58, 36, 30, 43, 41, 35, 39, 56, 8, 34, 26, 38, 30, 48, 40, 25, 16, 42, 16, 57, 11, 58, 48, 59, 47, 30, 60, 54, 66, 36, 35, 17, 47, 34, 29, 29, 37, 36, 31
              |12, 38, 32, 72, 10, 45, 45, 19, 22, 26, 56, 23, 12, 53, 40, 55, 39, 42, 23, 56, 63, 39, 38, 32, 26, 31, 68, 52, 10, 42, 40, 63, 22, 63, 37, 54, 23, 17, 48, 28, 18, 49, 58, 56, 56, 48, 12, 71, 36, 52, 16, 55, 37, 33, 22, 35, 15, 17, 22, 51, 32, 54, 26, 26, 16, 31, 14, 74, 32, 59, 25, 68, 24, 59, 34, 59, 36, 34, 34, 56, 59, 59, 47, 37, 28, 33, 20, 59, 29, 18, 55, 41, 47, 71, 45, 29, 21, 52, 43, 54, 17, 43, 57, 69, 14, 34, 46, 26, 63, 62, 36, 35, 18, 40, 66, 31, 57, 23, 80, 57, 34, 35, 37, 43, 30, 47, 54, 11, 65, 66, 44, 47, 51, 57, 17, 44, 48, 32, 48, 49, 32, 32, 47, 58, 57, 39, 19, 47, 29, 64, 76, 31, 47, 51, 38, 54, 72, 21, 49, 43, 30, 13, 25, 64, 48, 16, 42, 62, 26, 27, 37, 28, 9, 7, 42, 13, 56, 34, 43, 34, 72, 28, 58, 57, 65, 47, 19, 53, 26, 17, 14, 45, 54, 34, 64, 36, 20, 28, 45, 8, 47, 66, 29, 43, 53, 54, 13, 18, 20, 35, 74, 40, 63, 55, 45, 61, 39, 71, 33, 45, 70, 66, 66, 38, 64, 36, 32, 36, 43, 27, 28, 52, 53, 39, 22, 19, 15, 22, 36, 37, 41, 47, 16, 52, 29, 37, 47, 13, 33, 32, 26, 39, 44, 33, 63, 32, 12, 47, 50, 26, 38, 57, 14, 46, 57, 35, 36, 63, 34, 28, 45, 19, 36, 38, 48, 54, 16, 28, 66, 40, 33, 19, 34, 71, 44, 34, 55, 56, 46, 76, 29, 25, 42, 48, 57, 52, 15, 27, 33, 13
              |36, 52, 16, 75, 24, 32, 55, 33, 41, 58, 22, 13, 21, 66, 8, 25, 11, 58, 18, 26, 30, 24, 10, 46, 32, 17, 35, 22, 40, 11, 9, 72, 27, 30, 56, 38, 38, 45, 47, 57, 50, 33, 37, 38, 42, 34, 29, 74, 59, 19, 47, 77, 10, 65, 18, 63, 45, 42, 40, 21, 44, 81, 27, 49, 46, 46, 34, 64, 8, 54, 57, 37, 56, 63, 35, 29, 31, 21, 7, 84, 60, 63, 29, 61, 53, 52, 53, 36, 28, 43, 85, 52, 54, 38, 76, 55, 43, 20, 52, 21, 21, 39, 27, 67, 19, 30, 56, 50, 50, 30, 32, 46, 44, 42, 34, 64, 78, 54, 71, 63, 4, 68, 43, 52, 48, 63, 82, 25, 41, 43, 74, 66, 76, 44, 30, 72, 72, 35, 26, 80, 60, 51, 54, 25, 28, 36, 22, 26, 28, 32, 75, 58, 63, 64, 71, 86, 60, 52, 16, 18, 39, 20, 57, 54, 79, 48, 70, 47, 12, 18, 11, 54, 42, 40, 10, 31, 23, 14, 46, 57, 59, 57, 36, 28, 33, 19, 33, 54, 10, 17, 26, 20, 77, 29, 58, 67, 24, 18, 61, 31, 75, 72, 34, 49, 82, 34, 33, 28, 49, 12, 41, 7, 70, 72, 13, 45, 65, 65, 58, 54, 65, 67, 72, 71, 59, 69, 2, 15, 75, 47, 21, 27, 70, 69, 44, 25, 43, 39, 60, 27, 69, 57, 28, 78, 41, 19, 68, 46, 65, 64, 43, 21, 51, 50, 94, 65, 25, 65, 81, 44, 26, 83, 47, 56, 70, 64, 9, 50, 66, 21, 61, 47, 14, 5, 73, 22, 18, 43, 51, 36, 63, 35, 57, 64, 77, 30, 45, 84, 76, 43, 17, 55, 34, 72, 37, 49, 24, 22, 13, 46
              |35, 9, 69, 118, 45, 36, 91, 29, 68, 62, 73, 47, 47, 99, 66, 63, 69, 9, 40, 84, 78, 78, 68, 78, 71, 42, 84, 62, 55, 59, 68, 109, 66, 82, 82, 93, 24, 33, 94, 69, 57, 88, 95, 94, 97, 88, 57, 118, 22, 72, 37, 98, 68, 64, 62, 33, 58, 63, 25, 79, 16, 91, 31, 71, 59, 78, 60, 117, 64, 104, 41, 93, 46, 105, 79, 87, 79, 40, 64, 91, 105, 105, 42, 22, 26, 17, 53, 94, 72, 30, 87, 6, 94, 84, 79, 72, 27, 74, 90, 71, 41, 25, 64, 115, 49, 30, 93, 25, 104, 73, 28, 81, 31, 86, 88, 50, 100, 39, 124, 103, 61, 65, 83, 89, 76, 93, 92, 54, 99, 101, 78, 91, 91, 98, 63, 83, 90, 23, 48, 82, 73, 78, 93, 79, 62, 25, 38, 83, 72, 74, 122, 73, 9, 97, 62, 84, 114, 40, 69, 76, 19, 50, 46, 107, 81, 43, 80, 102, 62, 66, 52, 28, 50, 47, 67, 59, 75, 46, 15, 78, 114, 32, 94, 86, 89, 77, 29, 99, 59, 55, 58, 78, 97, 31, 108, 70, 63, 67, 91, 54, 86, 113, 25, 11, 89, 91, 59, 33, 62, 49, 84, 62, 110, 101, 60, 100, 81, 116, 76, 5, 115, 112, 113, 59, 109, 59, 56, 46, 72, 73, 37, 54, 99, 75, 68, 62, 34, 69, 22, 78, 80, 3, 61, 91, 76, 44, 91, 43, 65, 47, 73, 76, 8, 15, 94, 58, 56, 92, 81, 21, 78, 96, 45, 93, 103, 74, 52, 105, 44, 69, 91, 63, 48, 62, 88, 78, 45, 74, 107, 83, 38, 66, 21, 115, 69, 30, 97, 91, 79, 87, 41, 65, 84, 90, 94, 97, 39, 36, 46, 52
              |62, 76, 29, 76, 49, 50, 66, 59, 60, 81, 12, 39, 46, 76, 18, 26, 19, 83, 44, 7, 15, 29, 20, 61, 47, 40, 15, 25, 63, 23, 18, 79, 44, 8, 72, 32, 64, 71, 51, 77, 73, 31, 25, 31, 37, 33, 51, 76, 85, 11, 72, 92, 21, 88, 38, 89, 67, 63, 66, 8, 69, 100, 52, 68, 68, 62, 55, 56, 26, 53, 82, 11, 82, 66, 46, 7, 40, 42, 23, 103, 63, 68, 45, 87, 79, 78, 77, 22, 42, 69, 105, 76, 62, 21, 97, 75, 69, 8, 62, 13, 47, 60, 27, 66, 44, 52, 66, 76, 44, 21, 54, 59, 70, 50, 9, 89, 92, 80, 64, 69, 25, 91, 54, 63, 64, 75, 100, 48, 23, 25, 95, 80, 93, 39, 50, 91, 88, 59, 39, 101, 80, 67, 63, 6, 29, 58, 48, 22, 42, 23, 74, 77, 88, 74, 95, 107, 52, 78, 13, 18, 64, 45, 83, 49, 99, 74, 90, 39, 32, 34, 30, 80, 66, 65, 16, 52, 9, 36, 68, 75, 50, 83, 24, 10, 7, 14, 59, 58, 32, 40, 48, 17, 92, 51, 55, 89, 43, 34, 74, 54, 93, 77, 58, 72, 101, 26, 55, 54, 71, 33, 25, 20, 75, 84, 22, 36, 83, 61, 76, 77, 62, 68, 77, 95, 57, 93, 28, 36, 98, 64, 46, 35, 82, 90, 63, 44, 69, 57, 86, 34, 89, 81, 49, 96, 55, 39, 83, 71, 88, 89, 59, 26, 75, 75, 114, 89, 48, 79, 103, 70, 32, 100, 71, 66, 79, 84, 30, 43, 91, 35, 74, 68, 34, 21, 91, 4, 44, 59, 42, 42, 89, 54, 83, 58, 100, 52, 42, 103, 97, 25, 42, 77, 39, 89, 27, 52, 50, 47, 36, 70
              |74, 99, 41, 24, 62, 88, 31, 79, 46, 70, 63, 63, 60, 37, 53, 75, 46, 104, 69, 46, 68, 32, 48, 39, 38, 72, 67, 73, 60, 64, 50, 33, 42, 61, 45, 21, 84, 80, 16, 62, 66, 24, 28, 22, 16, 22, 52, 24, 99, 59, 79, 58, 47, 76, 46, 97, 61, 53, 84, 47, 92, 72, 78, 51, 60, 40, 51, 11, 48, 5, 85, 54, 81, 19, 30, 47, 28, 76, 49, 77, 14, 22, 85, 101, 91, 96, 73, 32, 35, 82, 82, 101, 25, 73, 76, 56, 84, 56, 29, 63, 67, 94, 77, 13, 59, 84, 30, 89, 10, 73, 86, 35, 82, 24, 59, 86, 56, 84, 16, 24, 53, 79, 29, 30, 43, 40, 71, 54, 34, 33, 75, 47, 64, 14, 46, 67, 57, 87, 82, 79, 61, 44, 26, 59, 78, 90, 70, 33, 35, 75, 21, 58, 109, 36, 86, 85, 11, 82, 60, 41, 88, 58, 82, 5, 78, 76, 68, 15, 47, 42, 68, 91, 65, 67, 53, 51, 61, 70, 99, 52, 13, 91, 29, 43, 54, 43, 79, 15, 50, 53, 50, 40, 58, 83, 2, 73, 45, 41, 41, 56, 68, 28, 84, 101, 75, 27, 51, 74, 61, 68, 78, 58, 28, 45, 66, 18, 58, 9, 55, 105, 9, 17, 28, 88, 4, 85, 58, 72, 82, 46, 75, 81, 44, 71, 49, 45, 79, 45, 100, 30, 66, 107, 47, 68, 37, 75, 51, 74, 76, 89, 43, 36, 103, 95, 88, 81, 52, 46, 82, 88, 31, 70, 73, 30, 38, 65, 66, 11, 93, 39, 41, 57, 70, 56, 62, 53, 63, 41, 15, 24, 94, 46, 97, 8, 87, 84, 12, 77, 77, 78, 72, 64, 23, 59, 26, 12, 69, 74, 69, 67
              |44, 65, 5, 57, 31, 50, 42, 45, 34, 57, 30, 26, 28, 52, 16, 39, 9, 72, 33, 21, 37, 6, 10, 36, 22, 34, 39, 36, 39, 26, 13, 57, 19, 33, 46, 21, 51, 53, 30, 52, 49, 16, 22, 21, 25, 17, 28, 57, 70, 26, 53, 67, 9, 64, 15, 72, 43, 38, 52, 18, 58, 74, 42, 43, 44, 36, 31, 46, 10, 37, 62, 34, 60, 46, 21, 24, 16, 38, 11, 78, 43, 47, 47, 72, 63, 64, 54, 22, 16, 52, 80, 67, 39, 44, 72, 49, 53, 24, 38, 29, 33, 56, 41, 50, 26, 47, 42, 60, 33, 40, 49, 34, 53, 27, 34, 67, 67, 60, 54, 47, 14, 67, 30, 39, 38, 51, 74, 26, 28, 29, 70, 55, 68, 26, 25, 66, 62, 50, 44, 76, 55, 42, 39, 29, 42, 53, 35, 10, 16, 42, 58, 52, 76, 50, 72, 82, 43, 58, 25, 8, 54, 26, 61, 36, 74, 53, 65, 30, 12, 10, 29, 63, 44, 43, 16, 28, 29, 32, 62, 50, 42, 64, 22, 21, 31, 11, 45, 37, 14, 20, 25, 9, 67, 45, 40, 64, 19, 9, 49, 31, 68, 56, 49, 65, 76, 18, 31, 40, 47, 30, 49, 20, 54, 60, 28, 28, 57, 47, 51, 69, 47, 49, 56, 72, 41, 70, 20, 33, 73, 39, 37, 44, 58, 65, 37, 20, 51, 32, 71, 10, 63, 72, 24, 71, 30, 37, 58, 50, 64, 68, 34, 3, 67, 63, 88, 66, 25, 54, 78, 56, 9, 75, 50, 42, 56, 59, 27, 33, 71, 10, 49, 43, 32, 18, 65, 23, 29, 33, 34, 19, 70, 29, 68, 46, 76, 47, 27, 78, 72, 49, 34, 52, 17, 64, 21, 32, 35, 38, 31, 47
              |70, 79, 44, 93, 59, 48, 83, 65, 74, 94, 13, 47, 56, 93, 29, 20, 33, 86, 50, 24, 5, 46, 33, 77, 63, 44, 3, 21, 75, 28, 30, 96, 59, 9, 87, 49, 69, 79, 68, 91, 85, 49, 42, 48, 54, 51, 64, 93, 90, 17, 81, 108, 35, 100, 52, 97, 80, 76, 72, 25, 72, 115, 56, 83, 81, 77, 69, 72, 39, 71, 91, 19, 92, 84, 62, 23, 56, 44, 36, 118, 80, 85, 42, 92, 86, 83, 89, 39, 57, 77, 120, 78, 79, 3, 110, 89, 76, 18, 79, 15, 55, 59, 20, 83, 55, 54, 83, 82, 61, 10, 55, 75, 78, 67, 12, 99, 108, 89, 80, 86, 36, 103, 71, 80, 79, 92, 115, 60, 38, 41, 109, 96, 109, 56, 64, 106, 104, 61, 36, 115, 94, 83, 80, 13, 22, 58, 55, 40, 57, 10, 91, 92, 90, 91, 107, 121, 68, 87, 19, 34, 67, 55, 93, 66, 113, 84, 105, 56, 45, 49, 34, 87, 77, 75, 28, 65, 13, 40, 68, 90, 66, 90, 41, 27, 17, 31, 65, 75, 44, 52, 61, 34, 108, 53, 72, 102, 57, 48, 91, 66, 108, 94, 61, 72, 116, 43, 68, 60, 85, 37, 8, 28, 93, 101, 25, 53, 98, 78, 91, 78, 79, 85, 94, 106, 74, 104, 37, 38, 111, 80, 50, 30, 99, 104, 77, 58, 77, 72, 91, 51, 103, 81, 62, 111, 71, 40, 99, 81, 101, 99, 75, 42, 75, 80, 128, 100, 60, 96, 116, 75, 49, 116, 82, 83, 96, 98, 34, 60, 100, 51, 91, 81, 38, 30, 106, 19, 53, 74, 58, 59, 97, 69, 88, 75, 112, 54, 60, 118, 111, 8, 46, 90, 56, 105, 44, 69, 58, 51, 40, 82
              |69, 90, 30, 52, 56, 71, 50, 70, 53, 78, 38, 51, 53, 59, 34, 52, 29, 97, 57, 20, 42, 22, 30, 50, 41, 57, 40, 50, 62, 44, 31, 58, 41, 34, 60, 11, 76, 78, 32, 72, 71, 15, 3, 9, 14, 16, 51, 52, 95, 35, 78, 78, 30, 85, 40, 97, 65, 59, 77, 23, 83, 89, 66, 61, 65, 51, 53, 29, 34, 30, 86, 25, 84, 45, 35, 20, 29, 60, 33, 93, 40, 47, 67, 97, 88, 90, 77, 4, 35, 78, 97, 91, 45, 46, 90, 67, 78, 32, 46, 39, 58, 79, 53, 41, 51, 70, 50, 85, 18, 48, 72, 47, 78, 35, 31, 90, 77, 84, 37, 49, 37, 88, 41, 47, 54, 60, 89, 50, 6, 6, 88, 66, 82, 15, 47, 82, 75, 75, 62, 93, 73, 57, 45, 33, 55, 76, 60, 15, 35, 49, 49, 70, 102, 57, 94, 100, 25, 82, 37, 22, 78, 51, 85, 24, 92, 77, 82, 13, 37, 35, 49, 88, 67, 67, 33, 51, 36, 54, 86, 65, 23, 89, 4, 17, 26, 21, 70, 37, 39, 46, 48, 20, 78, 69, 30, 84, 42, 34, 59, 55, 84, 55, 73, 89, 92, 8, 53, 65, 68, 51, 51, 38, 54, 67, 44, 10, 73, 35, 68, 94, 37, 44, 55, 95, 33, 92, 42, 54, 93, 56, 61, 60, 66, 83, 57, 43, 76, 51, 96, 25, 80, 97, 47, 85, 46, 58, 70, 74, 85, 92, 51, 23, 91, 88, 105, 88, 49, 65, 96, 81, 24, 89, 74, 50, 61, 77, 48, 17, 95, 33, 59, 64, 53, 37, 79, 28, 54, 50, 15, 28, 95, 49, 93, 32, 97, 70, 20, 93, 90, 50, 57, 73, 25, 77, 5, 31, 60, 62, 53, 70
              |32, 42, 65, 91, 43, 68, 63, 40, 44, 21, 89, 55, 46, 66, 74, 86, 73, 40, 52, 90, 96, 72, 72, 52, 54, 60, 101, 84, 32, 74, 74, 78, 53, 96, 50, 85, 38, 24, 74, 31, 24, 80, 91, 87, 87, 79, 43, 90, 27, 85, 21, 57, 71, 19, 55, 17, 30, 37, 35, 85, 42, 46, 50, 40, 30, 51, 41, 101, 66, 85, 11, 102, 10, 80, 62, 93, 66, 62, 68, 44, 82, 78, 72, 27, 24, 33, 17, 92, 59, 28, 39, 46, 68, 104, 33, 37, 30, 86, 64, 87, 47, 61, 88, 92, 47, 57, 64, 26, 92, 94, 57, 56, 25, 66, 100, 4, 60, 13, 106, 76, 67, 19, 61, 63, 48, 60, 47, 45, 98, 99, 32, 55, 48, 87, 47, 39, 50, 51, 76, 35, 34, 48, 67, 92, 87, 58, 48, 80, 59, 96, 97, 36, 43, 65, 13, 36, 100, 14, 82, 77, 45, 47, 9, 92, 34, 18, 36, 92, 60, 60, 69, 22, 27, 27, 76, 43, 90, 64, 55, 43, 101, 17, 91, 90, 98, 80, 40, 77, 60, 51, 46, 79, 55, 57, 90, 26, 52, 61, 58, 39, 42, 83, 48, 53, 43, 86, 41, 43, 29, 66, 106, 74, 80, 64, 77, 92, 42, 97, 40, 51, 94, 87, 83, 10, 90, 11, 65, 65, 24, 45, 55, 81, 63, 31, 41, 51, 26, 45, 27, 69, 37, 51, 47, 47, 53, 66, 53, 21, 20, 3, 47, 72, 52, 36, 46, 12, 45, 56, 33, 34, 70, 51, 20, 64, 70, 33, 68, 93, 5, 61, 58, 33, 66, 72, 46, 88, 48, 50, 96, 69, 11, 46, 27, 97, 20, 57, 84, 44, 32, 108, 57, 27, 72, 49, 89, 78, 44, 53, 63, 24
              |65, 91, 47, 21, 57, 91, 9, 72, 32, 49, 78, 64, 56, 7, 64, 87, 57, 95, 69, 65, 85, 43, 58, 22, 32, 75, 86, 84, 46, 73, 61, 9, 38, 79, 21, 42, 76, 69, 21, 39, 48, 41, 51, 44, 39, 39, 44, 20, 87, 74, 66, 28, 57, 53, 46, 82, 45, 38, 76, 64, 85, 43, 76, 31, 43, 22, 40, 39, 55, 25, 69, 75, 64, 11, 28, 67, 33, 79, 57, 48, 16, 9, 90, 88, 79, 85, 55, 54, 35, 71, 54, 94, 9, 92, 50, 34, 74, 71, 11, 78, 65, 93, 89, 24, 56, 84, 8, 78, 37, 88, 86, 19, 70, 22, 79, 66, 26, 69, 40, 6, 60, 56, 20, 11, 24, 12, 42, 48, 59, 58, 49, 19, 35, 37, 39, 40, 29, 84, 89, 52, 38, 23, 9, 76, 90, 90, 68, 49, 35, 90, 27, 35, 100, 7, 64, 58, 40, 66, 73, 55, 83, 55, 65, 34, 51, 62, 42, 41, 51, 45, 74, 78, 51, 54, 64, 42, 77, 74, 96, 28, 42, 76, 52, 63, 74, 58, 72, 16, 54, 52, 44, 54, 29, 82, 28, 49, 42, 45, 14, 47, 40, 13, 81, 96, 47, 47, 41, 70, 43, 73, 96, 68, 10, 16, 76, 43, 32, 31, 31, 99, 28, 18, 13, 66, 26, 63, 64, 76, 57, 28, 75, 90, 15, 46, 33, 42, 67, 32, 87, 38, 40, 101, 41, 39, 25, 79, 23, 60, 53, 70, 28, 47, 98, 86, 59, 60, 46, 18, 55, 79, 40, 41, 58, 8, 8, 40, 72, 39, 74, 42, 14, 40, 75, 65, 34, 70, 61, 26, 43, 29, 77, 35, 85, 34, 63, 84, 33, 48, 51, 96, 73, 43, 32, 31, 48, 21, 65, 74, 73, 51
              |47, 68, 8, 57, 34, 51, 43, 48, 37, 60, 29, 29, 31, 53, 16, 39, 9, 74, 35, 19, 36, 6, 10, 38, 24, 36, 38, 36, 42, 27, 13, 57, 22, 31, 48, 18, 53, 56, 30, 55, 52, 14, 19, 19, 23, 15, 31, 57, 73, 25, 56, 69, 10, 66, 18, 75, 46, 41, 54, 16, 60, 76, 44, 45, 47, 38, 34, 44, 12, 36, 65, 31, 63, 46, 22, 22, 17, 40, 12, 80, 43, 47, 48, 74, 66, 67, 57, 19, 18, 55, 83, 69, 40, 43, 74, 52, 56, 22, 39, 29, 35, 58, 41, 49, 29, 49, 43, 63, 31, 39, 51, 36, 56, 28, 32, 70, 69, 63, 52, 48, 16, 70, 31, 40, 40, 52, 76, 29, 25, 26, 73, 57, 70, 25, 28, 68, 64, 53, 45, 78, 57, 44, 40, 27, 42, 55, 38, 8, 18, 41, 57, 55, 79, 51, 75, 84, 41, 61, 24, 6, 56, 29, 64, 35, 77, 56, 67, 28, 15, 13, 30, 66, 47, 46, 16, 31, 28, 34, 65, 52, 40, 67, 19, 18, 28, 9, 48, 37, 17, 23, 27, 6, 68, 47, 39, 67, 22, 12, 51, 34, 70, 56, 51, 67, 78, 15, 34, 43, 50, 31, 47, 21, 54, 61, 28, 25, 60, 46, 53, 72, 46, 49, 56, 75, 41, 73, 21, 35, 76, 41, 40, 44, 59, 68, 40, 23, 54, 35, 73, 11, 66, 75, 27, 73, 32, 38, 60, 53, 67, 71, 36, 2, 69, 65, 91, 68, 28, 56, 80, 59, 9, 77, 53, 43, 57, 62, 29, 31, 74, 13, 51, 46, 33, 19, 67, 21, 31, 35, 32, 20, 73, 32, 71, 44, 79, 49, 26, 80, 75, 48, 36, 55, 17, 66, 18, 32, 38, 40, 33, 50
              |28, 14, 54, 108, 34, 20, 82, 19, 60, 60, 56, 32, 35, 91, 49, 46, 54, 21, 25, 68, 61, 64, 52, 70, 60, 25, 67, 45, 48, 42, 51, 100, 54, 65, 76, 79, 17, 31, 82, 65, 53, 74, 79, 80, 83, 74, 47, 107, 30, 55, 35, 93, 52, 64, 49, 40, 52, 56, 19, 63, 11, 90, 16, 65, 54, 69, 51, 103, 48, 91, 43, 76, 47, 95, 67, 70, 66, 23, 49, 90, 94, 95, 25, 31, 29, 22, 51, 78, 60, 27, 88, 12, 84, 67, 79, 67, 24, 58, 80, 54, 27, 9, 47, 103, 36, 13, 84, 27, 91, 56, 11, 72, 29, 74, 71, 53, 95, 40, 111, 94, 45, 66, 72, 80, 68, 86, 90, 43, 83, 85, 77, 85, 88, 84, 52, 80, 86, 8, 31, 82, 69, 71, 83, 62, 45, 8, 24, 68, 60, 57, 110, 69, 24, 89, 64, 86, 100, 40, 52, 60, 9, 37, 47, 93, 81, 41, 77, 88, 47, 52, 35, 32, 45, 41, 51, 49, 58, 29, 4, 72, 100, 36, 78, 70, 72, 61, 19, 87, 45, 42, 47, 62, 92, 14, 95, 69, 51, 53, 83, 45, 83, 103, 10, 7, 88, 76, 50, 22, 57, 32, 67, 46, 100, 94, 43, 86, 77, 103, 71, 12, 102, 101, 103, 62, 96, 61, 40, 29, 73, 66, 21, 37, 92, 74, 60, 51, 31, 60, 31, 64, 77, 16, 51, 88, 66, 27, 86, 40, 65, 50, 64, 61, 9, 18, 96, 59, 45, 85, 82, 19, 64, 93, 42, 84, 95, 71, 35, 91, 49, 55, 83, 57, 31, 46, 85, 61, 32, 65, 92, 71, 44, 56, 28, 102, 71, 13, 84, 90, 79, 70, 25, 61, 71, 86, 79, 85, 27, 21, 30, 48
              |58, 84, 44, 29, 50, 85, 4, 65, 24, 41, 76, 58, 50, 7, 61, 83, 54, 87, 63, 64, 83, 41, 55, 15, 27, 69, 85, 80, 38, 69, 58, 17, 33, 78, 13, 43, 69, 60, 22, 31, 40, 41, 52, 45, 41, 39, 37, 28, 78, 71, 58, 24, 54, 45, 41, 74, 36, 30, 68, 62, 78, 37, 70, 23, 35, 15, 33, 45, 51, 30, 60, 75, 55, 18, 25, 67, 30, 73, 54, 42, 22, 17, 85, 80, 71, 77, 46, 55, 31, 63, 47, 87, 10, 90, 42, 26, 66, 69, 8, 75, 58, 87, 86, 32, 49, 77, 4, 70, 41, 85, 79, 13, 62, 20, 78, 58, 23, 60, 47, 14, 56, 47, 16, 7, 16, 6, 36, 42, 60, 60, 41, 13, 29, 40, 32, 33, 23, 77, 84, 45, 29, 15, 9, 74, 86, 83, 61, 48, 31, 88, 35, 26, 92, 5, 55, 51, 46, 58, 70, 53, 76, 49, 56, 39, 44, 53, 34, 44, 47, 41, 69, 70, 43, 46, 61, 35, 75, 69, 89, 20, 47, 68, 53, 62, 74, 56, 65, 20, 49, 46, 37, 53, 24, 76, 33, 41, 36, 41, 6, 39, 33, 21, 74, 89, 41, 48, 34, 63, 34, 68, 94, 64, 18, 14, 72, 46, 24, 38, 23, 91, 35, 26, 21, 57, 32, 54, 60, 71, 49, 19, 69, 86, 12, 38, 25, 36, 59, 24, 79, 36, 32, 93, 34, 33, 19, 74, 17, 51, 44, 62, 20, 45, 90, 78, 53, 51, 40, 12, 48, 72, 38, 35, 50, 4, 11, 32, 67, 43, 66, 38, 6, 31, 70, 62, 27, 68, 55, 19, 47, 28, 69, 28, 77, 40, 55, 77, 35, 42, 43, 95, 67, 35, 31, 25, 50, 24, 58, 68, 68, 43
              |16, 11, 54, 100, 29, 37, 72, 14, 49, 42, 66, 34, 31, 79, 55, 60, 57, 14, 29, 74, 73, 63, 56, 59, 53, 35, 79, 58, 35, 51, 57, 90, 48, 75, 63, 78, 9, 13, 76, 49, 37, 73, 81, 80, 81, 73, 39, 99, 12, 64, 17, 78, 55, 45, 46, 20, 38, 43, 7, 69, 9, 72, 23, 51, 40, 59, 41, 100, 51, 87, 23, 84, 27, 87, 61, 77, 62, 34, 52, 72, 87, 86, 42, 14, 9, 5, 33, 81, 55, 10, 69, 15, 75, 80, 60, 52, 7, 66, 71, 64, 27, 29, 61, 97, 33, 26, 73, 7, 89, 69, 27, 62, 11, 68, 80, 33, 81, 21, 107, 84, 50, 47, 64, 70, 57, 73, 73, 36, 86, 88, 59, 72, 72, 82, 45, 63, 71, 19, 47, 64, 53, 59, 74, 71, 60, 26, 25, 69, 55, 71, 103, 54, 19, 77, 44, 66, 98, 21, 61, 63, 13, 34, 28, 90, 62, 23, 60, 87, 47, 51, 44, 11, 30, 27, 57, 40, 68, 38, 23, 58, 98, 16, 81, 75, 80, 66, 14, 81, 45, 39, 40, 65, 77, 27, 91, 51, 46, 51, 71, 35, 66, 93, 18, 21, 70, 77, 40, 19, 42, 41, 81, 53, 91, 81, 53, 85, 61, 99, 56, 20, 97, 94, 93, 42, 91, 42, 45, 40, 54, 54, 28, 53, 79, 56, 48, 45, 14, 49, 13, 62, 60, 21, 43, 71, 57, 39, 71, 24, 46, 30, 53, 61, 20, 5, 76, 40, 38, 72, 63, 3, 63, 76, 25, 73, 83, 54, 44, 89, 29, 53, 71, 43, 41, 52, 69, 69, 30, 55, 91, 66, 23, 47, 10, 98, 52, 26, 81, 72, 60, 84, 32, 45, 68, 70, 80, 79, 24, 27, 38, 32
              |21, 10, 52, 103, 29, 25, 77, 13, 54, 52, 58, 30, 31, 85, 49, 50, 53, 17, 24, 68, 64, 61, 51, 64, 55, 26, 70, 48, 42, 43, 51, 95, 50, 67, 69, 77, 10, 24, 78, 58, 46, 71, 78, 78, 80, 72, 42, 103, 23, 56, 28, 86, 51, 56, 45, 33, 45, 50, 12, 63, 4, 82, 15, 58, 47, 64, 46, 100, 47, 88, 35, 77, 39, 90, 63, 71, 63, 25, 48, 83, 90, 90, 30, 25, 22, 15, 43, 77, 56, 19, 80, 10, 79, 70, 71, 60, 16, 59, 75, 56, 24, 16, 51, 99, 33, 15, 78, 19, 88, 59, 15, 67, 22, 70, 72, 45, 89, 33, 107, 89, 45, 58, 68, 75, 63, 80, 83, 38, 82, 84, 70, 79, 81, 82, 48, 73, 79, 8, 36, 75, 62, 65, 78, 63, 49, 14, 21, 66, 56, 61, 106, 62, 21, 83, 56, 78, 98, 33, 53, 59, 3, 33, 40, 91, 74, 34, 70, 86, 45, 50, 36, 24, 38, 34, 51, 44, 60, 30, 11, 66, 97, 29, 77, 70, 73, 61, 13, 83, 42, 38, 43, 61, 85, 16, 92, 62, 47, 50, 77, 39, 76, 98, 8, 10, 81, 74, 45, 17, 50, 33, 71, 46, 95, 88, 45, 84, 70, 100, 64, 13, 99, 97, 98, 54, 93, 54, 40, 31, 66, 60, 21, 42, 86, 66, 54, 46, 23, 54, 24, 62, 70, 16, 46, 81, 61, 29, 79, 33, 57, 43, 58, 59, 12, 11, 88, 52, 40, 79, 74, 11, 62, 86, 35, 78, 89, 64, 36, 88, 42, 52, 77, 51, 32, 46, 78, 62, 28, 60, 90, 67, 36, 51, 22, 99, 64, 15, 81, 83, 71, 74, 25, 54, 68, 79, 77, 81, 23, 20, 30, 41
              |62, 85, 24, 45, 49, 69, 40, 64, 44, 68, 41, 46, 47, 49, 33, 54, 26, 91, 53, 24, 46, 15, 27, 40, 31, 54, 46, 51, 53, 43, 30, 49, 32, 39, 50, 1, 70, 70, 22, 62, 62, 5, 8, 2, 6, 6, 43, 45, 88, 37, 70, 68, 27, 75, 32, 89, 56, 49, 71, 25, 77, 79, 62, 51, 56, 41, 44, 27, 30, 22, 78, 33, 75, 36, 25, 26, 19, 57, 30, 83, 32, 38, 66, 90, 81, 83, 68, 11, 26, 71, 87, 86, 35, 52, 79, 57, 72, 34, 36, 41, 52, 76, 55, 35, 45, 66, 40, 78, 14, 51, 69, 37, 71, 25, 37, 81, 67, 76, 35, 39, 33, 78, 30, 37, 44, 50, 78, 43, 16, 16, 78, 56, 71, 8, 38, 72, 65, 70, 62, 83, 63, 47, 35, 37, 57, 73, 55, 11, 26, 53, 43, 60, 96, 47, 84, 90, 23, 74, 38, 20, 73, 44, 76, 18, 82, 69, 72, 10, 31, 27, 48, 81, 58, 59, 32, 42, 39, 51, 82, 55, 22, 82, 9, 21, 33, 21, 64, 28, 34, 39, 40, 18, 68, 65, 24, 74, 34, 26, 49, 47, 73, 46, 68, 85, 81, 5, 44, 60, 58, 49, 57, 37, 45, 57, 44, 8, 63, 30, 58, 89, 31, 37, 46, 85, 26, 82, 39, 52, 83, 46, 57, 60, 56, 73, 47, 35, 68, 41, 89, 16, 70, 92, 38, 75, 35, 56, 60, 66, 75, 83, 41, 17, 87, 82, 94, 78, 41, 55, 86, 75, 16, 78, 66, 40, 51, 67, 46, 13, 87, 25, 49, 54, 51, 36, 69, 31, 48, 40, 14, 18, 86, 40, 86, 28, 87, 66, 11, 83, 80, 56, 54, 63, 15, 67, 6, 22, 54, 57, 50, 61
              |13, 27, 50, 88, 25, 48, 59, 20, 37, 26, 70, 36, 28, 65, 56, 66, 56, 28, 33, 73, 77, 58, 55, 47, 44, 40, 83, 64, 23, 55, 57, 76, 40, 78, 49, 73, 18, 4, 66, 34, 22, 67, 77, 74, 75, 67, 30, 87, 18, 67, 2, 62, 54, 29, 40, 16, 24, 30, 16, 68, 25, 56, 30, 37, 25, 46, 31, 92, 49, 77, 9, 85, 12, 75, 52, 76, 55, 42, 51, 56, 76, 74, 52, 20, 11, 19, 17, 78, 47, 8, 53, 31, 63, 85, 44, 37, 11, 68, 59, 68, 28, 42, 68, 86, 30, 37, 61, 10, 81, 75, 38, 50, 6, 58, 82, 19, 65, 6, 98, 72, 50, 31, 54, 58, 44, 59, 57, 30, 83, 85, 43, 57, 56, 76, 35, 47, 55, 31, 56, 48, 37, 45, 62, 73, 67, 39, 28, 65, 47, 76, 92, 38, 33, 64, 30, 51, 90, 6, 64, 61, 26, 30, 13, 82, 47, 7, 44, 80, 44, 46, 49, 10, 17, 14, 58, 31, 71, 44, 38, 43, 90, 9, 77, 74, 81, 64, 20, 70, 43, 35, 33, 63, 61, 37, 82, 35, 39, 47, 57, 26, 50, 81, 29, 36, 54, 72, 30, 23, 27, 46, 87, 55, 78, 66, 58, 79, 46, 89, 41, 36, 87, 82, 81, 27, 82, 27, 47, 46, 39, 40, 35, 61, 64, 40, 35, 38, 6, 38, 19, 56, 44, 37, 35, 55, 46, 46, 56, 9, 30, 17, 41, 57, 36, 21, 61, 24, 31, 57, 47, 16, 57, 60, 10, 61, 69, 38, 48, 82, 18, 47, 57, 29, 46, 54, 53, 70, 30, 43, 85, 58, 15, 36, 17, 89, 37, 37, 73, 56, 44, 89, 38, 29, 60, 55, 75, 70, 25, 34, 43, 17
              |24, 50, 33, 61, 21, 57, 33, 33, 10, 20, 62, 32, 22, 40, 45, 64, 42, 54, 34, 58, 69, 38, 42, 20, 19, 42, 73, 61, 4, 50, 44, 50, 18, 67, 24, 50, 36, 27, 40, 17, 12, 45, 56, 52, 51, 44, 11, 60, 45, 57, 25, 42, 40, 26, 23, 42, 6, 4, 35, 54, 45, 42, 39, 13, 7, 19, 6, 66, 36, 51, 30, 71, 26, 48, 27, 61, 31, 46, 39, 45, 49, 47, 58, 47, 37, 44, 18, 58, 24, 30, 45, 53, 36, 77, 36, 17, 32, 57, 32, 60, 29, 56, 66, 59, 22, 47, 34, 36, 57, 69, 49, 23, 29, 32, 70, 31, 44, 29, 72, 45, 39, 30, 27, 31, 17, 34, 43, 15, 64, 64, 35, 33, 39, 52, 12, 33, 35, 45, 59, 40, 21, 19, 35, 63, 66, 52, 31, 46, 24, 72, 65, 19, 58, 38, 35, 46, 65, 26, 55, 45, 43, 21, 27, 57, 39, 21, 31, 57, 29, 27, 47, 37, 10, 13, 47, 9, 62, 44, 56, 21, 66, 36, 56, 58, 68, 48, 33, 43, 30, 23, 14, 46, 41, 46, 55, 28, 18, 28, 32, 9, 36, 54, 42, 56, 43, 51, 7, 31, 10, 44, 81, 47, 51, 42, 53, 56, 27, 63, 20, 58, 61, 55, 54, 35, 55, 33, 39, 46, 36, 14, 40, 63, 40, 30, 9, 17, 26, 11, 46, 34, 30, 60, 13, 40, 19, 48, 34, 19, 27, 34, 14, 39, 57, 45, 54, 28, 14, 34, 42, 38, 35, 45, 17, 34, 44, 24, 45, 57, 37, 27, 32, 7, 46, 45, 35, 58, 27, 16, 61, 34, 38, 10, 44, 63, 39, 47, 48, 45, 37, 82, 40, 16, 36, 36, 54, 43, 27, 39, 43, 11
              |19, 25, 58, 95, 32, 51, 66, 24, 44, 30, 76, 42, 35, 72, 63, 71, 63, 24, 38, 80, 83, 66, 62, 54, 51, 45, 88, 69, 30, 61, 63, 83, 48, 84, 55, 80, 21, 10, 74, 39, 27, 75, 84, 82, 83, 74, 38, 94, 12, 73, 10, 67, 61, 32, 48, 9, 30, 38, 18, 75, 24, 60, 34, 44, 32, 53, 38, 100, 56, 85, 9, 91, 14, 82, 59, 83, 62, 46, 58, 59, 83, 81, 55, 13, 6, 15, 22, 85, 55, 12, 55, 29, 70, 90, 47, 43, 13, 74, 66, 74, 34, 44, 73, 94, 37, 40, 68, 8, 89, 80, 40, 57, 10, 66, 88, 18, 70, 7, 105, 79, 56, 33, 61, 65, 51, 66, 61, 37, 91, 92, 46, 63, 60, 83, 43, 51, 60, 33, 60, 50, 43, 52, 69, 80, 72, 40, 34, 73, 55, 82, 99, 44, 28, 70, 30, 52, 98, 9, 70, 68, 27, 37, 14, 90, 49, 13, 48, 88, 51, 53, 54, 4, 24, 22, 64, 38, 77, 49, 38, 49, 98, 2, 84, 81, 88, 71, 24, 77, 50, 42, 40, 70, 66, 40, 89, 38, 46, 54, 64, 34, 54, 88, 31, 35, 57, 80, 38, 28, 33, 51, 92, 61, 85, 72, 63, 87, 51, 97, 47, 34, 95, 89, 88, 27, 89, 27, 53, 51, 40, 47, 39, 65, 70, 44, 42, 45, 12, 45, 13, 64, 49, 34, 42, 59, 53, 50, 62, 16, 33, 15, 48, 65, 34, 19, 63, 26, 39, 63, 49, 16, 64, 64, 17, 68, 76, 43, 54, 89, 14, 55, 64, 35, 51, 60, 58, 77, 36, 50, 92, 66, 9, 44, 11, 97, 37, 40, 81, 59, 47, 94, 43, 34, 68, 59, 83, 77, 31, 38, 48, 24
              |57, 76, 70, 68, 59, 94, 45, 66, 40, 24, 101, 72, 61, 42, 85, 104, 81, 76, 72, 95, 109, 73, 81, 41, 53, 81, 113, 101, 40, 90, 83, 52, 55, 106, 32, 81, 66, 53, 63, 23, 32, 77, 89, 83, 80, 75, 50, 67, 63, 97, 49, 25, 79, 20, 62, 54, 36, 37, 64, 92, 74, 9, 75, 32, 34, 40, 45, 87, 75, 72, 43, 108, 38, 60, 57, 98, 63, 84, 78, 7, 64, 58, 96, 64, 58, 67, 33, 91, 59, 57, 6, 80, 51, 117, 5, 25, 60, 96, 48, 100, 67, 90, 106, 73, 62, 83, 46, 59, 82, 109, 84, 45, 55, 57, 108, 35, 28, 45, 89, 55, 79, 19, 51, 47, 38, 37, 11, 55, 97, 97, 6, 30, 15, 79, 50, 9, 20, 79, 98, 4, 20, 35, 50, 102, 105, 86, 69, 81, 59, 111, 75, 22, 79, 42, 25, 9, 88, 44, 95, 82, 75, 61, 38, 80, 4, 43, 9, 84, 69, 65, 86, 56, 41, 44, 86, 49, 101, 83, 87, 26, 89, 52, 89, 95, 105, 86, 66, 61, 70, 62, 53, 83, 23, 82, 75, 14, 57, 66, 36, 49, 9, 59, 76, 86, 5, 84, 46, 66, 30, 84, 120, 86, 57, 36, 92, 85, 19, 80, 24, 85, 77, 67, 59, 28, 74, 26, 79, 85, 13, 36, 77, 102, 36, 10, 37, 56, 53, 42, 64, 68, 11, 86, 52, 12, 46, 87, 26, 43, 19, 39, 41, 75, 85, 70, 14, 26, 54, 31, 7, 65, 69, 14, 41, 46, 44, 16, 85, 83, 42, 64, 36, 33, 85, 84, 15, 97, 66, 42, 88, 63, 48, 45, 63, 82, 19, 83, 75, 7, 5, 122, 78, 25, 67, 18, 86, 65, 64, 76, 82, 37
              |78, 103, 46, 20, 66, 93, 32, 83, 49, 73, 68, 68, 64, 36, 59, 80, 52, 108, 74, 51, 73, 37, 53, 41, 41, 77, 72, 78, 63, 69, 55, 31, 46, 66, 46, 26, 88, 84, 19, 63, 69, 29, 33, 27, 21, 27, 56, 20, 103, 64, 83, 57, 52, 78, 50, 101, 64, 56, 88, 52, 96, 72, 83, 53, 63, 42, 54, 10, 53, 8, 88, 58, 84, 18, 33, 52, 33, 81, 54, 77, 13, 20, 90, 104, 95, 99, 75, 36, 40, 86, 82, 105, 26, 78, 77, 58, 87, 61, 30, 68, 72, 98, 82, 9, 63, 89, 31, 93, 14, 78, 91, 37, 85, 27, 64, 88, 55, 87, 13, 23, 58, 80, 32, 31, 45, 40, 71, 58, 39, 37, 76, 47, 64, 19, 50, 68, 58, 91, 87, 80, 63, 46, 27, 64, 84, 95, 75, 38, 40, 80, 16, 60, 113, 36, 88, 86, 12, 85, 65, 46, 93, 62, 85, 9, 79, 80, 69, 19, 52, 47, 73, 95, 68, 70, 58, 54, 66, 75, 103, 53, 14, 94, 34, 48, 59, 48, 83, 16, 55, 57, 54, 45, 58, 87, 4, 75, 49, 46, 41, 59, 68, 25, 89, 105, 76, 32, 55, 79, 64, 73, 83, 63, 25, 44, 71, 22, 59, 4, 56, 109, 4, 13, 25, 90, 3, 87, 63, 76, 83, 48, 79, 86, 44, 72, 52, 50, 82, 48, 103, 35, 67, 112, 51, 68, 40, 80, 51, 77, 77, 92, 45, 41, 107, 99, 88, 83, 56, 46, 83, 92, 35, 70, 76, 31, 36, 66, 71, 16, 95, 44, 41, 60, 75, 61, 62, 58, 67, 43, 19, 28, 97, 49, 101, 5, 89, 89, 17, 77, 78, 82, 76, 66, 28, 60, 31, 15, 73, 79, 74, 70
              |22, 11, 61, 105, 35, 43, 77, 21, 54, 44, 73, 41, 38, 84, 62, 66, 64, 10, 36, 81, 80, 70, 63, 64, 59, 41, 86, 65, 40, 58, 64, 94, 55, 82, 67, 85, 16, 17, 82, 52, 40, 80, 88, 86, 88, 80, 45, 104, 6, 71, 20, 81, 62, 46, 52, 16, 42, 48, 14, 76, 14, 73, 29, 56, 43, 63, 47, 107, 58, 93, 23, 91, 28, 92, 67, 84, 69, 41, 59, 73, 93, 91, 48, 8, 8, 2, 35, 88, 61, 15, 69, 15, 80, 86, 61, 56, 13, 73, 76, 71, 34, 33, 68, 103, 40, 32, 78, 8, 95, 76, 32, 67, 16, 74, 87, 32, 83, 21, 113, 89, 57, 47, 70, 75, 62, 78, 75, 43, 93, 95, 60, 75, 74, 89, 50, 65, 73, 25, 53, 64, 56, 63, 79, 78, 66, 31, 32, 76, 61, 77, 109, 57, 14, 82, 44, 66, 105, 22, 68, 70, 18, 40, 28, 97, 63, 26, 62, 93, 54, 57, 51, 10, 35, 31, 64, 46, 75, 45, 26, 62, 104, 14, 88, 82, 87, 73, 21, 86, 52, 46, 47, 72, 79, 33, 97, 52, 52, 58, 75, 41, 68, 98, 24, 22, 71, 84, 46, 26, 45, 48, 88, 60, 96, 85, 60, 92, 64, 105, 60, 20, 103, 99, 98, 41, 97, 41, 52, 47, 54, 58, 35, 59, 83, 57, 53, 51, 18, 55, 7, 69, 62, 20, 49, 73, 62, 45, 74, 27, 47, 29, 58, 68, 21, 6, 76, 40, 45, 76, 63, 10, 69, 78, 29, 78, 87, 57, 51, 95, 27, 59, 75, 47, 47, 59, 71, 76, 37, 60, 98, 73, 21, 52, 4, 104, 51, 32, 87, 73, 61, 90, 39, 47, 74, 73, 87, 85, 31, 34, 45, 36
              |66, 92, 50, 22, 59, 93, 10, 74, 33, 49, 81, 65, 58, 5, 66, 89, 60, 96, 70, 68, 87, 46, 60, 23, 34, 76, 89, 86, 46, 76, 64, 8, 40, 82, 21, 45, 77, 69, 24, 39, 48, 44, 54, 47, 42, 41, 45, 21, 87, 76, 66, 26, 59, 52, 48, 82, 45, 38, 76, 66, 86, 41, 78, 31, 43, 23, 41, 42, 57, 28, 69, 78, 64, 13, 30, 70, 35, 81, 60, 46, 18, 11, 92, 88, 79, 86, 54, 57, 37, 72, 52, 95, 12, 94, 48, 34, 74, 74, 13, 80, 66, 95, 91, 26, 57, 85, 9, 78, 40, 91, 87, 21, 71, 24, 81, 66, 23, 69, 42, 8, 62, 55, 22, 13, 25, 11, 40, 50, 62, 61, 47, 17, 33, 40, 40, 39, 27, 85, 91, 50, 37, 23, 11, 79, 92, 91, 69, 51, 37, 93, 28, 34, 100, 5, 63, 56, 43, 67, 75, 57, 84, 56, 64, 37, 50, 62, 40, 44, 53, 47, 76, 78, 52, 55, 67, 43, 79, 76, 97, 27, 45, 76, 55, 65, 77, 60, 74, 18, 56, 53, 45, 57, 26, 84, 30, 48, 43, 47, 13, 48, 38, 13, 82, 97, 45, 50, 42, 71, 42, 75, 99, 70, 10, 13, 78, 46, 31, 34, 31, 100, 30, 20, 13, 65, 29, 62, 66, 78, 56, 28, 76, 92, 12, 44, 33, 43, 68, 33, 87, 41, 38, 102, 42, 37, 27, 81, 21, 60, 52, 70, 29, 49, 98, 87, 57, 59, 48, 16, 54, 80, 42, 38, 58, 9, 6, 39, 74, 42, 74, 44, 13, 40, 77, 68, 32, 72, 62, 27, 46, 32, 77, 36, 86, 36, 62, 85, 35, 46, 49, 99, 75, 43, 35, 29, 51, 24, 66, 76, 75, 51
              |33, 16, 59, 113, 39, 20, 87, 24, 65, 64, 58, 36, 40, 96, 52, 47, 57, 22, 30, 71, 63, 68, 56, 75, 65, 29, 69, 47, 53, 44, 55, 105, 59, 67, 81, 83, 22, 36, 86, 70, 58, 78, 83, 84, 87, 79, 52, 112, 33, 57, 40, 98, 56, 68, 53, 43, 57, 61, 24, 66, 15, 94, 21, 70, 59, 74, 56, 108, 52, 96, 47, 78, 51, 100, 72, 73, 71, 26, 53, 95, 99, 100, 26, 34, 33, 25, 56, 82, 65, 32, 92, 13, 89, 68, 83, 72, 29, 60, 85, 56, 32, 9, 48, 108, 41, 16, 89, 31, 95, 57, 14, 77, 34, 79, 73, 57, 100, 45, 115, 98, 49, 70, 77, 85, 73, 91, 95, 48, 86, 88, 82, 90, 93, 88, 57, 85, 91, 13, 32, 87, 74, 76, 88, 64, 46, 10, 29, 72, 65, 58, 115, 74, 24, 94, 68, 90, 105, 45, 54, 64, 14, 42, 52, 98, 86, 46, 82, 92, 52, 57, 38, 35, 50, 46, 54, 54, 60, 32, 1, 78, 104, 40, 82, 73, 74, 65, 24, 92, 49, 46, 52, 66, 97, 17, 100, 74, 56, 58, 89, 50, 88, 108, 15, 5, 93, 80, 55, 27, 62, 35, 68, 49, 105, 99, 46, 90, 82, 108, 76, 11, 107, 106, 108, 66, 101, 66, 44, 32, 78, 71, 25, 38, 97, 79, 66, 55, 35, 65, 33, 69, 82, 14, 56, 93, 71, 29, 91, 45, 69, 54, 69, 65, 8, 21, 100, 64, 50, 90, 87, 23, 69, 98, 47, 89, 100, 76, 38, 95, 53, 60, 89, 62, 34, 49, 90, 64, 36, 71, 96, 75, 47, 61, 31, 107, 76, 16, 88, 95, 84, 71, 28, 66, 76, 91, 82, 90, 32, 25, 33, 53
              |41, 59, 62, 74, 46, 79, 48, 50, 34, 10, 91, 59, 48, 48, 75, 91, 72, 59, 59, 88, 98, 66, 71, 39, 47, 67, 103, 88, 29, 78, 74, 60, 48, 97, 33, 77, 50, 36, 62, 16, 18, 73, 84, 79, 77, 71, 40, 73, 46, 87, 32, 36, 70, 4, 53, 37, 24, 29, 48, 84, 57, 25, 60, 27, 23, 38, 36, 89, 65, 72, 26, 100, 21, 64, 53, 91, 58, 70, 68, 24, 67, 62, 82, 47, 41, 50, 17, 86, 52, 40, 20, 63, 53, 106, 12, 21, 43, 87, 49, 89, 53, 74, 93, 77, 50, 68, 49, 42, 81, 98, 69, 43, 38, 55, 99, 18, 40, 28, 92, 59, 68, 2, 49, 48, 35, 42, 26, 44, 92, 93, 11, 36, 27, 77, 42, 18, 30, 63, 84, 15, 16, 33, 52, 92, 93, 71, 55, 75, 52, 100, 80, 19, 62, 47, 10, 19, 88, 27, 84, 74, 58, 49, 21, 80, 14, 26, 15, 82, 59, 57, 74, 39, 27, 30, 76, 39, 91, 70, 71, 26, 89, 35, 85, 87, 97, 78, 50, 63, 60, 51, 43, 76, 35, 67, 77, 5, 48, 58, 40, 37, 21, 66, 60, 69, 22, 79, 36, 51, 20, 71, 109, 75, 63, 45, 81, 82, 22, 83, 23, 68, 80, 71, 66, 13, 76, 10, 67, 72, 7, 32, 63, 88, 44, 10, 31, 47, 37, 36, 47, 62, 16, 69, 42, 25, 42, 73, 34, 27, 3, 22, 36, 68, 68, 53, 28, 9, 43, 37, 15, 49, 64, 30, 25, 49, 51, 13, 72, 82, 26, 56, 40, 23, 72, 73, 26, 87, 52, 38, 86, 60, 31, 38, 46, 84, 10, 68, 73, 24, 12, 111, 64, 15, 63, 28, 82, 65, 50, 62, 69, 23
              |23, 25, 40, 95, 23, 15, 71, 14, 50, 55, 43, 18, 24, 80, 35, 35, 39, 32, 12, 53, 49, 50, 38, 59, 48, 11, 55, 34, 40, 28, 37, 89, 42, 52, 66, 64, 17, 30, 68, 58, 47, 59, 65, 65, 69, 60, 36, 95, 37, 41, 33, 85, 37, 60, 35, 44, 45, 47, 19, 48, 18, 84, 4, 56, 47, 59, 41, 89, 34, 78, 43, 62, 46, 82, 54, 56, 53, 10, 34, 85, 81, 83, 18, 39, 33, 29, 47, 64, 47, 26, 84, 25, 72, 56, 74, 60, 24, 44, 69, 41, 15, 14, 37, 90, 24, 4, 72, 30, 76, 45, 6, 61, 28, 62, 57, 52, 87, 40, 97, 82, 31, 63, 60, 68, 58, 76, 85, 32, 68, 70, 73, 76, 81, 70, 41, 74, 78, 7, 22, 78, 62, 61, 71, 48, 35, 10, 12, 53, 47, 46, 98, 62, 36, 78, 63, 83, 86, 40, 38, 45, 13, 25, 46, 80, 77, 38, 72, 74, 33, 39, 21, 35, 39, 35, 37, 38, 45, 15, 18, 64, 86, 39, 64, 56, 58, 47, 14, 75, 30, 29, 36, 48, 84, 3, 82, 65, 39, 39, 73, 35, 77, 91, 7, 21, 83, 61, 40, 13, 50, 18, 57, 32, 89, 84, 30, 72, 70, 90, 63, 26, 89, 88, 91, 61, 83, 60, 26, 16, 71, 56, 6, 28, 82, 69, 51, 38, 28, 49, 38, 51, 71, 30, 39, 82, 55, 14, 77, 37, 61, 51, 53, 47, 24, 25, 92, 57, 34, 76, 79, 22, 50, 87, 38, 72, 84, 65, 22, 76, 51, 42, 73, 49, 17, 31, 78, 48, 19, 55, 78, 57, 47, 46, 35, 88, 70, 4, 70, 85, 75, 59, 10, 55, 57, 79, 64, 72, 16, 6, 16, 42
              |26, 52, 31, 59, 21, 58, 31, 34, 8, 21, 61, 32, 22, 38, 45, 64, 41, 55, 35, 57, 69, 36, 41, 18, 17, 43, 72, 60, 6, 49, 43, 48, 17, 66, 22, 48, 37, 29, 38, 18, 14, 43, 54, 50, 49, 42, 10, 58, 47, 57, 27, 41, 39, 28, 22, 44, 8, 3, 36, 53, 46, 43, 40, 12, 8, 17, 5, 64, 35, 49, 32, 69, 28, 46, 25, 60, 29, 46, 38, 45, 47, 45, 59, 49, 40, 46, 20, 56, 22, 32, 46, 55, 34, 76, 37, 17, 34, 56, 30, 59, 29, 57, 66, 57, 22, 48, 32, 38, 54, 69, 50, 21, 31, 30, 69, 33, 43, 31, 69, 43, 38, 31, 25, 29, 16, 33, 43, 15, 62, 63, 35, 32, 38, 49, 11, 33, 35, 46, 59, 41, 21, 18, 33, 62, 66, 53, 32, 44, 22, 71, 63, 19, 60, 36, 37, 47, 63, 29, 54, 43, 45, 22, 29, 55, 40, 23, 31, 54, 28, 26, 47, 39, 12, 15, 46, 8, 61, 44, 57, 20, 63, 38, 55, 56, 66, 47, 34, 41, 30, 22, 13, 45, 40, 47, 53, 29, 17, 27, 30, 9, 36, 52, 43, 58, 43, 49, 6, 32, 11, 44, 80, 46, 49, 41, 52, 54, 27, 60, 20, 60, 58, 53, 52, 37, 53, 34, 39, 46, 38, 13, 40, 63, 39, 30, 7, 16, 28, 9, 48, 32, 30, 62, 12, 40, 17, 48, 33, 21, 28, 36, 12, 37, 59, 47, 54, 30, 14, 32, 43, 40, 33, 45, 20, 32, 42, 25, 45, 55, 40, 26, 30, 8, 46, 44, 35, 57, 27, 14, 59, 31, 41, 8, 46, 61, 40, 48, 46, 45, 38, 81, 40, 17, 34, 35, 52, 41, 28, 39, 43, 14
              |68, 92, 32, 35, 56, 78, 36, 72, 45, 70, 51, 54, 53, 44, 43, 64, 36, 98, 61, 34, 56, 23, 37, 39, 34, 63, 55, 61, 57, 53, 39, 42, 37, 49, 48, 9, 77, 76, 17, 62, 64, 13, 16, 10, 4, 12, 47, 36, 94, 48, 75, 64, 37, 76, 39, 94, 59, 51, 77, 35, 85, 76, 70, 51, 58, 40, 48, 17, 39, 13, 82, 42, 79, 29, 26, 35, 22, 67, 39, 81, 24, 31, 75, 96, 86, 90, 71, 20, 30, 76, 85, 94, 30, 61, 79, 57, 78, 44, 33, 52, 60, 85, 66, 25, 52, 75, 35, 84, 4, 61, 77, 36, 76, 23, 47, 84, 62, 81, 25, 33, 43, 79, 29, 34, 43, 46, 76, 48, 23, 22, 77, 52, 69, 2, 42, 71, 62, 78, 72, 82, 63, 46, 31, 47, 67, 82, 62, 21, 30, 63, 33, 60, 103, 42, 86, 89, 14, 78, 48, 30, 81, 51, 80, 8, 81, 73, 71, 4, 39, 34, 57, 86, 62, 63, 42, 46, 49, 60, 91, 54, 14, 87, 17, 31, 42, 31, 72, 21, 42, 46, 45, 28, 64, 74, 14, 74, 39, 33, 46, 51, 71, 38, 76, 93, 79, 15, 48, 67, 60, 58, 66, 47, 37, 52, 54, 6, 61, 20, 57, 97, 21, 28, 38, 87, 16, 84, 48, 62, 83, 46, 66, 70, 51, 73, 48, 40, 74, 43, 95, 22, 69, 100, 43, 72, 36, 65, 56, 70, 76, 87, 42, 26, 95, 89, 92, 80, 47, 51, 85, 82, 22, 75, 70, 35, 45, 67, 56, 4, 90, 32, 46, 56, 60, 46, 66, 41, 55, 40, 8, 19, 91, 43, 92, 18, 88, 75, 5, 81, 80, 66, 62, 64, 17, 64, 14, 16, 61, 66, 60, 64
              |66, 92, 51, 23, 59, 94, 11, 74, 33, 48, 82, 66, 58, 3, 68, 91, 61, 96, 71, 69, 89, 47, 62, 23, 35, 77, 90, 87, 46, 77, 65, 8, 41, 84, 20, 47, 77, 69, 26, 38, 47, 45, 56, 49, 44, 43, 46, 22, 86, 78, 66, 24, 61, 51, 49, 81, 44, 38, 76, 68, 86, 39, 78, 31, 43, 23, 41, 44, 59, 30, 68, 80, 63, 16, 32, 72, 37, 81, 61, 44, 20, 13, 93, 88, 79, 86, 54, 59, 38, 72, 50, 95, 13, 96, 46, 33, 74, 76, 14, 82, 66, 95, 93, 28, 58, 86, 10, 78, 42, 92, 88, 21, 70, 26, 83, 65, 21, 68, 44, 10, 64, 53, 23, 14, 25, 9, 38, 50, 64, 63, 46, 16, 31, 42, 41, 37, 25, 85, 92, 49, 36, 23, 13, 80, 93, 91, 70, 53, 38, 94, 30, 33, 100, 4, 61, 54, 45, 66, 77, 59, 85, 57, 64, 39, 48, 61, 39, 46, 54, 48, 77, 78, 51, 55, 68, 44, 81, 77, 97, 26, 47, 76, 57, 67, 79, 62, 74, 21, 57, 54, 46, 59, 24, 85, 33, 47, 44, 48, 11, 48, 36, 14, 83, 97, 43, 52, 42, 71, 42, 76, 100, 71, 12, 11, 79, 48, 29, 36, 29, 100, 33, 22, 14, 64, 31, 61, 67, 79, 54, 28, 77, 93, 10, 43, 33, 44, 68, 33, 87, 42, 37, 102, 43, 35, 27, 82, 19, 59, 51, 69, 29, 51, 99, 87, 55, 58, 48, 15, 52, 80, 44, 36, 58, 10, 4, 38, 75, 44, 73, 45, 11, 39, 78, 69, 30, 74, 63, 27, 48, 34, 76, 36, 85, 38, 60, 86, 37, 44, 47, 101, 75, 42, 37, 27, 53, 26, 66, 76, 76, 51
              |66, 84, 29, 67, 53, 59, 60, 65, 58, 81, 23, 45, 50, 70, 24, 37, 22, 90, 50, 6, 26, 25, 23, 58, 45, 48, 24, 36, 64, 32, 23, 72, 43, 18, 68, 23, 70, 75, 44, 76, 74, 24, 15, 22, 28, 26, 52, 67, 91, 21, 76, 88, 24, 88, 39, 94, 68, 62, 72, 11, 76, 97, 59, 66, 68, 58, 55, 45, 29, 45, 85, 11, 84, 59, 42, 4, 35, 51, 27, 101, 54, 60, 55, 93, 84, 84, 79, 12, 39, 74, 104, 84, 56, 30, 95, 73, 74, 18, 57, 24, 52, 69, 39, 57, 48, 61, 61, 81, 34, 32, 63, 55, 75, 45, 15, 91, 87, 83, 53, 62, 29, 91, 49, 57, 61, 70, 97, 50, 12, 14, 94, 76, 90, 30, 49, 89, 84, 66, 50, 99, 78, 64, 57, 17, 40, 67, 54, 17, 39, 34, 65, 76, 95, 69, 96, 106, 41, 81, 23, 17, 71, 48, 85, 39, 98, 77, 89, 29, 34, 34, 39, 85, 68, 67, 22, 52, 21, 44, 77, 72, 39, 87, 14, 4, 10, 14, 65, 50, 35, 43, 49, 16, 88, 60, 46, 89, 43, 34, 69, 56, 91, 69, 65, 80, 99, 17, 55, 60, 71, 41, 35, 28, 68, 78, 32, 26, 80, 51, 74, 86, 52, 59, 69, 97, 48, 94, 34, 44, 98, 62, 53, 46, 77, 89, 61, 44, 73, 56, 92, 30, 87, 89, 49, 93, 52, 48, 79, 74, 88, 92, 57, 23, 83, 82, 112, 90, 49, 75, 102, 76, 29, 97, 74, 61, 73, 83, 38, 33, 95, 35, 69, 68, 43, 28, 87, 13, 49, 56, 31, 37, 93, 53, 89, 48, 101, 61, 34, 101, 96, 34, 49, 77, 33, 86, 17, 44, 55, 54, 44, 71
              |42, 59, 16, 72, 30, 37, 56, 40, 44, 63, 18, 20, 27, 66, 1, 24, 6, 65, 25, 19, 25, 21, 5, 48, 34, 23, 29, 21, 45, 11, 3, 71, 29, 24, 58, 33, 45, 51, 45, 61, 55, 29, 31, 33, 38, 31, 33, 72, 66, 13, 53, 79, 6, 70, 21, 70, 49, 46, 47, 14, 51, 85, 34, 53, 51, 48, 38, 59, 9, 51, 63, 30, 63, 61, 35, 22, 30, 26, 6, 88, 58, 62, 33, 68, 60, 60, 59, 30, 29, 50, 89, 59, 54, 33, 80, 59, 50, 13, 52, 16, 28, 45, 26, 65, 25, 36, 57, 57, 46, 26, 38, 47, 51, 41, 27, 70, 80, 61, 67, 62, 5, 73, 43, 53, 50, 64, 85, 30, 34, 36, 79, 68, 79, 40, 33, 76, 74, 42, 30, 84, 64, 53, 54, 19, 27, 42, 29, 21, 29, 29, 73, 62, 70, 64, 77, 90, 56, 59, 11, 12, 46, 26, 64, 50, 83, 55, 74, 42, 15, 19, 16, 61, 47, 46, 3, 35, 18, 20, 52, 60, 54, 63, 30, 21, 26, 13, 40, 52, 14, 22, 30, 14, 79, 35, 54, 72, 27, 19, 62, 36, 78, 71, 40, 55, 86, 29, 38, 35, 54, 17, 37, 5, 69, 73, 13, 40, 68, 62, 61, 61, 62, 64, 71, 76, 56, 74, 9, 21, 80, 50, 28, 29, 71, 74, 47, 28, 49, 42, 67, 25, 73, 64, 32, 81, 42, 24, 70, 52, 70, 70, 45, 17, 58, 57, 98, 70, 30, 67, 86, 51, 24, 86, 53, 57, 70, 68, 14, 46, 72, 22, 62, 51, 19, 4, 76, 15, 25, 45, 46, 34, 70, 38, 64, 60, 82, 36, 41, 88, 81, 38, 24, 60, 32, 75, 31, 47, 31, 29, 19, 51
              |16, 42, 35, 69, 16, 51, 41, 25, 18, 21, 60, 28, 18, 48, 45, 61, 43, 45, 29, 59, 68, 41, 42, 28, 25, 38, 73, 58, 4, 47, 44, 58, 22, 67, 32, 55, 28, 19, 47, 22, 12, 49, 60, 56, 57, 49, 12, 68, 38, 57, 17, 49, 41, 27, 25, 35, 8, 12, 27, 55, 37, 47, 33, 21, 10, 27, 11, 73, 36, 58, 24, 72, 21, 56, 33, 63, 36, 41, 38, 49, 57, 55, 53, 39, 30, 36, 15, 61, 29, 22, 49, 45, 44, 76, 39, 23, 24, 57, 40, 59, 23, 49, 63, 67, 19, 41, 42, 28, 62, 67, 42, 31, 21, 39, 70, 27, 51, 22, 78, 53, 38, 30, 34, 39, 26, 42, 48, 14, 67, 68, 38, 41, 45, 57, 16, 38, 42, 38, 55, 43, 26, 27, 43, 63, 62, 45, 26, 49, 29, 69, 73, 25, 50, 46, 34, 48, 71, 20, 54, 46, 36, 18, 22, 63, 42, 15, 35, 62, 30, 29, 43, 29, 4, 5, 47, 12, 61, 40, 49, 28, 72, 29, 60, 60, 68, 50, 25, 51, 30, 21, 15, 48, 48, 40, 62, 30, 21, 30, 40, 8, 41, 62, 35, 48, 47, 55, 11, 24, 14, 41, 79, 45, 59, 50, 50, 61, 33, 70, 27, 50, 68, 63, 62, 33, 62, 31, 37, 42, 37, 22, 34, 59, 48, 33, 17, 20, 18, 18, 38, 38, 35, 52, 16, 45, 26, 43, 41, 12, 28, 29, 22, 41, 49, 37, 57, 27, 14, 41, 44, 30, 39, 50, 11, 42, 52, 29, 42, 63, 32, 30, 40, 13, 42, 43, 41, 58, 22, 24, 66, 39, 32, 17, 36, 70, 39, 41, 54, 49, 40, 81, 35, 19, 41, 42, 58, 50, 21, 33, 39, 8
              |29, 3, 64, 112, 40, 36, 85, 24, 62, 54, 71, 43, 42, 92, 62, 62, 66, 4, 36, 81, 77, 73, 64, 72, 65, 39, 83, 61, 48, 56, 64, 103, 60, 80, 76, 89, 18, 26, 88, 62, 50, 83, 90, 90, 92, 83, 51, 112, 16, 70, 30, 91, 64, 57, 56, 26, 51, 56, 18, 76, 11, 84, 28, 64, 53, 71, 54, 112, 60, 98, 34, 90, 39, 99, 73, 84, 74, 38, 61, 84, 99, 99, 42, 17, 19, 10, 46, 90, 67, 23, 80, 5, 87, 83, 72, 65, 20, 72, 83, 69, 36, 26, 64, 109, 44, 28, 86, 18, 99, 72, 27, 75, 24, 80, 86, 43, 93, 32, 118, 97, 58, 58, 77, 83, 70, 86, 85, 48, 95, 97, 71, 85, 84, 93, 57, 76, 83, 21, 48, 75, 66, 72, 87, 77, 62, 25, 34, 79, 67, 73, 116, 66, 8, 90, 55, 78, 109, 33, 67, 72, 16, 44, 39, 102, 74, 36, 72, 97, 57, 61, 49, 21, 43, 40, 64, 53, 73, 43, 17, 71, 109, 25, 90, 83, 86, 74, 24, 93, 55, 49, 52, 74, 89, 29, 103, 63, 57, 62, 84, 48, 79, 106, 21, 13, 82, 86, 53, 28, 55, 47, 84, 59, 103, 94, 58, 96, 74, 110, 69, 9, 109, 106, 106, 52, 103, 52, 52, 44, 65, 67, 34, 54, 92, 68, 61, 57, 27, 62, 16, 73, 73, 9, 55, 84, 69, 42, 84, 36, 58, 40, 66, 71, 11, 8, 88, 51, 50, 85, 74, 14, 73, 88, 38, 86, 96, 67, 50, 100, 38, 64, 84, 56, 45, 59, 81, 76, 40, 68, 102, 78, 32, 59, 15, 110, 62, 28, 92, 84, 72, 86, 38, 57, 79, 83, 89, 91, 34, 33, 44, 45
              |49, 58, 33, 89, 40, 28, 73, 44, 60, 76, 11, 27, 38, 83, 16, 7, 23, 65, 30, 27, 16, 38, 22, 64, 50, 23, 22, 4, 57, 8, 19, 89, 45, 20, 74, 48, 48, 58, 62, 75, 67, 45, 44, 48, 53, 47, 47, 89, 69, 11, 61, 95, 23, 82, 37, 76, 62, 60, 51, 23, 51, 100, 35, 68, 64, 65, 52, 74, 25, 68, 71, 32, 72, 78, 52, 28, 47, 23, 23, 102, 75, 79, 23, 71, 65, 62, 70, 42, 46, 56, 103, 57, 71, 23, 94, 73, 55, 15, 69, 9, 34, 39, 9, 81, 36, 33, 74, 61, 61, 13, 34, 64, 57, 58, 26, 79, 96, 68, 82, 79, 20, 85, 60, 70, 66, 81, 100, 43, 44, 46, 92, 84, 95, 55, 48, 90, 90, 40, 17, 98, 78, 69, 71, 17, 10, 38, 34, 36, 46, 14, 89, 76, 69, 81, 88, 103, 70, 67, 9, 27, 46, 37, 73, 66, 96, 64, 89, 57, 30, 36, 13, 66, 59, 56, 16, 49, 13, 19, 48, 76, 69, 69, 43, 30, 28, 26, 44, 69, 28, 35, 45, 29, 95, 32, 70, 85, 42, 35, 79, 49, 93, 88, 40, 52, 100, 43, 52, 40, 67, 16, 25, 12, 86, 90, 5, 54, 83, 77, 76, 58, 78, 81, 88, 87, 72, 85, 19, 17, 93, 65, 29, 14, 88, 87, 62, 43, 56, 58, 70, 42, 87, 61, 47, 97, 59, 19, 86, 61, 83, 79, 61, 34, 55, 58, 112, 81, 44, 84, 99, 54, 41, 101, 62, 74, 87, 82, 14, 60, 80, 38, 79, 65, 16, 15, 91, 19, 34, 61, 60, 51, 77, 54, 67, 75, 94, 33, 57, 102, 94, 27, 25, 73, 49, 91, 45, 64, 38, 30, 19, 63
              |55, 70, 76, 81, 60, 92, 56, 64, 46, 24, 105, 73, 62, 54, 89, 105, 85, 69, 73, 101, 112, 79, 85, 50, 59, 81, 117, 103, 43, 92, 88, 65, 61, 111, 42, 89, 63, 49, 72, 28, 33, 85, 97, 91, 89, 83, 54, 80, 56, 101, 45, 38, 84, 18, 67, 46, 38, 42, 61, 97, 69, 22, 74, 39, 37, 49, 49, 98, 79, 82, 37, 114, 33, 72, 65, 104, 71, 84, 82, 18, 75, 70, 95, 56, 52, 61, 31, 99, 65, 53, 12, 75, 62, 120, 11, 32, 56, 100, 58, 103, 67, 87, 108, 85, 64, 81, 57, 54, 92, 112, 82, 54, 51, 66, 113, 27, 41, 40, 100, 67, 82, 15, 60, 57, 46, 49, 23, 58, 105, 105, 12, 42, 28, 88, 55, 21, 33, 76, 98, 9, 27, 43, 61, 106, 107, 84, 69, 88, 65, 114, 87, 30, 72, 54, 16, 7, 98, 39, 98, 88, 71, 63, 33, 90, 10, 39, 19, 93, 73, 70, 88, 50, 41, 44, 90, 53, 105, 84, 83, 35, 99, 46, 97, 101, 111, 91, 64, 72, 74, 65, 57, 89, 36, 81, 86, 16, 61, 71, 47, 51, 22, 72, 73, 81, 18, 92, 50, 65, 33, 85, 123, 89, 69, 49, 95, 94, 29, 91, 32, 79, 88, 79, 72, 19, 85, 18, 81, 86, 7, 43, 77, 102, 48, 16, 43, 61, 50, 48, 56, 75, 21, 80, 56, 25, 54, 87, 38, 41, 17, 31, 48, 81, 80, 65, 17, 21, 57, 43, 6, 61, 76, 27, 39, 57, 56, 22, 86, 93, 34, 70, 47, 37, 86, 87, 28, 101, 67, 50, 97, 71, 40, 51, 56, 93, 9, 81, 84, 18, 10, 125, 78, 28, 75, 31, 94, 75, 64, 75, 83, 37
              |55, 71, 22, 71, 43, 47, 59, 53, 52, 74, 14, 33, 40, 70, 12, 27, 12, 78, 38, 7, 20, 22, 13, 54, 40, 35, 21, 25, 55, 20, 11, 73, 37, 14, 65, 28, 58, 64, 45, 70, 66, 26, 23, 27, 33, 28, 44, 71, 79, 10, 66, 85, 14, 81, 31, 83, 60, 55, 60, 2, 64, 93, 47, 61, 61, 55, 48, 53, 19, 49, 76, 17, 75, 61, 39, 9, 33, 38, 16, 96, 58, 63, 42, 81, 73, 73, 70, 21, 35, 63, 98, 71, 56, 26, 89, 67, 63, 7, 56, 14, 41, 56, 28, 62, 38, 48, 60, 70, 41, 24, 50, 52, 64, 44, 16, 82, 85, 73, 61, 63, 18, 84, 48, 56, 57, 69, 93, 41, 23, 25, 88, 73, 86, 35, 42, 84, 81, 54, 38, 94, 73, 60, 56, 11, 30, 54, 42, 17, 35, 26, 70, 70, 83, 68, 88, 100, 49, 71, 12, 11, 59, 38, 76, 46, 92, 67, 83, 36, 25, 27, 26, 74, 59, 58, 10, 45, 12, 32, 64, 68, 48, 76, 22, 9, 14, 8, 53, 52, 25, 34, 41, 11, 85, 47, 51, 82, 36, 26, 67, 47, 86, 71, 53, 68, 94, 22, 48, 48, 64, 29, 31, 15, 70, 77, 20, 33, 76, 58, 69, 73, 58, 63, 71, 88, 53, 86, 22, 32, 91, 57, 41, 35, 76, 83, 55, 37, 62, 50, 80, 27, 82, 76, 41, 89, 48, 35, 76, 64, 81, 82, 52, 19, 70, 70, 107, 82, 41, 73, 95, 64, 26, 93, 65, 60, 73, 77, 25, 40, 85, 28, 67, 61, 30, 16, 83, 4, 38, 52, 39, 36, 83, 47, 77, 55, 93, 48, 38, 96, 90, 31, 37, 70, 33, 82, 24, 47, 44, 41, 31, 63
              |64, 84, 74, 65, 65, 101, 45, 73, 44, 31, 106, 77, 67, 40, 89, 109, 85, 84, 79, 99, 113, 76, 85, 43, 56, 87, 117, 106, 47, 95, 88, 49, 59, 110, 33, 82, 74, 60, 63, 28, 39, 79, 91, 85, 81, 77, 55, 64, 72, 101, 56, 20, 83, 28, 67, 62, 42, 42, 72, 96, 81, 4, 82, 35, 40, 42, 50, 86, 79, 71, 51, 111, 46, 58, 59, 102, 65, 90, 82, 1, 63, 56, 103, 72, 66, 75, 40, 93, 62, 64, 9, 88, 51, 121, 13, 29, 67, 100, 48, 104, 73, 98, 111, 71, 68, 90, 46, 67, 82, 114, 91, 46, 62, 58, 112, 43, 24, 53, 87, 53, 83, 27, 52, 47, 40, 36, 5, 60, 99, 99, 14, 29, 12, 80, 55, 12, 18, 86, 104, 11, 25, 37, 50, 106, 111, 94, 75, 84, 62, 116, 72, 26, 88, 40, 33, 14, 87, 52, 99, 86, 82, 67, 46, 80, 12, 50, 14, 85, 73, 69, 92, 64, 47, 51, 91, 54, 105, 89, 95, 28, 89, 60, 91, 98, 109, 89, 73, 61, 75, 68, 58, 87, 19, 89, 75, 22, 61, 70, 35, 54, 10, 56, 83, 93, 3, 86, 51, 73, 36, 90, 125, 91, 54, 33, 98, 86, 21, 79, 27, 93, 75, 65, 56, 36, 73, 34, 84, 91, 22, 39, 84, 108, 33, 17, 41, 60, 61, 46, 72, 71, 15, 94, 56, 8, 49, 93, 25, 51, 27, 47, 44, 78, 93, 78, 12, 34, 59, 30, 14, 73, 72, 8, 49, 46, 41, 21, 90, 83, 51, 68, 35, 38, 91, 89, 14, 100, 72, 45, 88, 65, 56, 50, 71, 81, 27, 90, 75, 1, 13, 126, 85, 31, 69, 16, 88, 65, 71, 83, 88, 44
              |24, 50, 20, 61, 13, 48, 35, 29, 16, 33, 48, 21, 12, 44, 32, 51, 29, 54, 25, 45, 56, 26, 28, 23, 13, 32, 60, 48, 15, 37, 31, 53, 8, 54, 31, 40, 34, 31, 35, 30, 25, 35, 45, 42, 42, 34, 3, 60, 49, 44, 30, 52, 27, 40, 10, 49, 19, 16, 34, 41, 43, 55, 32, 23, 20, 23, 8, 60, 22, 46, 38, 57, 36, 48, 21, 48, 22, 36, 25, 58, 47, 47, 48, 51, 42, 46, 30, 46, 15, 32, 59, 52, 36, 64, 50, 29, 34, 44, 33, 47, 21, 49, 53, 57, 12, 40, 36, 39, 49, 56, 42, 25, 32, 28, 56, 42, 53, 36, 66, 46, 25, 43, 25, 33, 23, 40, 55, 4, 52, 53, 48, 41, 50, 43, 5, 46, 46, 40, 48, 54, 33, 26, 36, 49, 53, 46, 24, 34, 15, 58, 64, 32, 59, 42, 48, 60, 58, 34, 42, 32, 40, 11, 37, 50, 52, 29, 44, 48, 16, 14, 35, 42, 19, 19, 33, 4, 48, 33, 52, 31, 58, 42, 45, 45, 54, 35, 29, 41, 17, 10, 0, 33, 51, 39, 50, 41, 6, 15, 38, 7, 48, 56, 37, 53, 56, 40, 7, 26, 24, 33, 67, 33, 53, 49, 40, 47, 38, 58, 32, 56, 57, 54, 56, 48, 51, 45, 26, 35, 50, 22, 31, 51, 47, 43, 17, 5, 29, 14, 50, 24, 43, 59, 3, 52, 19, 37, 43, 26, 40, 44, 18, 26, 54, 45, 67, 41, 2, 41, 55, 38, 24, 57, 26, 36, 49, 38, 33, 49, 47, 15, 38, 21, 34, 31, 47, 44, 17, 19, 52, 26, 47, 10, 48, 58, 52, 40, 41, 58, 50, 69, 30, 29, 28, 47, 43, 39, 21, 30, 32, 23
              |14, 39, 27, 71, 5, 42, 44, 19, 22, 31, 50, 18, 7, 53, 35, 50, 34, 44, 19, 51, 58, 35, 33, 32, 23, 27, 63, 47, 13, 37, 35, 62, 19, 57, 38, 50, 24, 21, 46, 32, 23, 44, 54, 51, 52, 44, 9, 70, 39, 47, 21, 57, 32, 37, 17, 40, 18, 19, 23, 46, 32, 57, 24, 28, 20, 31, 13, 71, 27, 57, 30, 63, 29, 58, 31, 54, 33, 31, 29, 59, 58, 57, 43, 41, 31, 35, 25, 54, 25, 21, 59, 42, 46, 66, 50, 32, 23, 47, 42, 49, 13, 41, 52, 67, 9, 32, 46, 29, 59, 57, 34, 34, 22, 38, 61, 36, 59, 28, 77, 56, 28, 40, 35, 42, 31, 48, 58, 7, 60, 61, 48, 48, 54, 53, 15, 48, 51, 31, 44, 54, 35, 33, 46, 53, 52, 37, 16, 42, 25, 59, 74, 34, 49, 51, 44, 59, 69, 26, 44, 38, 30, 8, 30, 61, 52, 21, 46, 58, 21, 22, 33, 32, 14, 12, 37, 11, 51, 29, 42, 36, 68, 33, 54, 51, 59, 41, 19, 51, 21, 12, 11, 40, 56, 31, 61, 41, 16, 23, 46, 7, 51, 65, 28, 43, 57, 49, 12, 16, 24, 30, 69, 35, 63, 56, 40, 57, 42, 69, 36, 46, 67, 64, 65, 43, 62, 41, 27, 31, 48, 28, 25, 48, 54, 44, 23, 15, 19, 22, 40, 33, 45, 48, 13, 55, 28, 33, 49, 18, 38, 37, 26, 34, 44, 35, 68, 37, 9, 48, 55, 28, 34, 60, 19, 46, 57, 39, 31, 59, 39, 24, 46, 22, 31, 33, 51, 49, 12, 28, 62, 37, 38, 18, 37, 68, 49, 32, 51, 59, 50, 70, 25, 29, 38, 51, 52, 50, 12, 23, 28, 18
              |56, 74, 73, 75, 60, 93, 51, 65, 43, 24, 103, 73, 62, 49, 87, 105, 84, 73, 73, 99, 111, 76, 83, 46, 56, 82, 115, 102, 42, 91, 86, 59, 59, 109, 37, 85, 65, 51, 68, 25, 32, 81, 93, 88, 85, 80, 52, 74, 60, 99, 47, 31, 82, 18, 65, 50, 37, 40, 63, 95, 72, 16, 75, 35, 35, 45, 48, 93, 77, 77, 40, 111, 36, 66, 61, 102, 67, 84, 80, 12, 70, 64, 96, 60, 55, 64, 32, 95, 62, 55, 6, 78, 57, 119, 6, 29, 58, 99, 53, 102, 67, 89, 107, 79, 63, 82, 52, 57, 87, 111, 84, 49, 53, 62, 111, 31, 35, 42, 95, 61, 81, 16, 56, 52, 42, 43, 17, 57, 101, 102, 8, 36, 22, 84, 53, 15, 27, 78, 98, 3, 23, 39, 56, 105, 107, 85, 69, 85, 62, 113, 81, 26, 76, 48, 20, 4, 93, 42, 97, 85, 73, 62, 35, 86, 4, 41, 14, 89, 71, 68, 87, 53, 41, 44, 89, 51, 104, 84, 85, 31, 95, 49, 94, 98, 108, 89, 65, 67, 72, 64, 55, 87, 30, 82, 81, 14, 59, 69, 42, 50, 16, 66, 75, 84, 11, 88, 48, 66, 32, 85, 122, 88, 63, 43, 94, 90, 24, 86, 28, 83, 83, 73, 66, 23, 80, 22, 81, 86, 9, 40, 78, 103, 42, 13, 40, 59, 52, 46, 60, 72, 16, 83, 54, 18, 50, 87, 33, 42, 17, 35, 45, 78, 83, 68, 14, 23, 56, 37, 0, 64, 73, 21, 40, 52, 50, 19, 86, 88, 38, 67, 42, 35, 86, 86, 22, 99, 66, 46, 93, 68, 44, 49, 60, 88, 14, 82, 80, 12, 5, 124, 79, 26, 71, 25, 91, 71, 65, 76, 83, 37
              |62, 82, 72, 64, 63, 98, 43, 71, 42, 29, 103, 75, 64, 39, 87, 107, 83, 82, 77, 97, 111, 74, 83, 41, 54, 85, 115, 104, 44, 93, 86, 48, 57, 108, 31, 80, 72, 58, 61, 26, 36, 77, 89, 83, 79, 75, 53, 63, 70, 99, 54, 20, 81, 26, 65, 61, 39, 40, 70, 94, 79, 3, 80, 33, 38, 40, 48, 85, 77, 70, 49, 109, 44, 57, 57, 100, 64, 88, 80, 2, 61, 55, 100, 70, 64, 73, 38, 91, 60, 62, 9, 86, 49, 119, 11, 27, 65, 98, 46, 102, 71, 95, 109, 70, 65, 88, 44, 65, 81, 112, 89, 44, 60, 56, 110, 41, 23, 51, 86, 52, 81, 25, 51, 45, 38, 34, 4, 58, 97, 97, 12, 27, 11, 79, 52, 10, 17, 84, 102, 10, 22, 35, 49, 104, 109, 91, 73, 82, 60, 114, 71, 24, 86, 39, 31, 13, 86, 50, 97, 84, 80, 64, 44, 78, 10, 48, 12, 83, 71, 67, 90, 62, 45, 49, 89, 52, 103, 87, 93, 26, 87, 58, 90, 96, 107, 87, 71, 59, 73, 65, 56, 85, 18, 87, 73, 20, 59, 68, 34, 52, 8, 55, 81, 91, 1, 84, 49, 71, 34, 87, 123, 89, 53, 32, 95, 84, 19, 77, 25, 91, 74, 64, 55, 35, 72, 33, 82, 89, 20, 37, 82, 106, 32, 15, 39, 58, 58, 44, 70, 69, 13, 92, 54, 7, 47, 91, 23, 49, 25, 45, 42, 76, 91, 76, 14, 33, 57, 28, 13, 71, 70, 8, 47, 44, 40, 19, 88, 82, 49, 66, 34, 36, 89, 87, 12, 98, 69, 43, 86, 63, 55, 47, 69, 80, 26, 88, 74, 2, 12, 124, 82, 29, 67, 15, 86, 64, 69, 80, 86, 41
              |19, 22, 58, 97, 32, 49, 69, 22, 46, 33, 75, 41, 35, 74, 62, 70, 63, 21, 37, 80, 82, 66, 62, 56, 53, 44, 88, 68, 32, 60, 63, 85, 49, 83, 57, 81, 19, 10, 75, 42, 30, 76, 85, 83, 84, 75, 39, 96, 9, 72, 11, 70, 61, 35, 49, 9, 33, 40, 16, 75, 22, 63, 33, 46, 34, 55, 40, 101, 56, 86, 12, 91, 17, 84, 61, 83, 64, 45, 58, 62, 85, 83, 54, 11, 3, 12, 25, 85, 56, 11, 58, 26, 72, 89, 50, 46, 12, 74, 68, 73, 33, 41, 72, 95, 37, 38, 70, 6, 90, 79, 38, 59, 10, 67, 88, 21, 73, 10, 107, 81, 56, 36, 63, 67, 53, 68, 64, 38, 91, 92, 49, 65, 63, 84, 44, 54, 63, 31, 58, 53, 45, 54, 71, 79, 70, 38, 33, 73, 56, 80, 101, 47, 25, 73, 33, 55, 99, 12, 69, 68, 25, 37, 17, 91, 52, 16, 51, 89, 51, 54, 53, 1, 26, 24, 64, 40, 76, 48, 35, 52, 99, 4, 85, 81, 87, 71, 22, 79, 50, 43, 41, 70, 69, 38, 91, 41, 47, 55, 66, 35, 57, 90, 29, 32, 60, 80, 39, 27, 36, 50, 91, 61, 87, 75, 62, 88, 54, 98, 50, 31, 96, 91, 90, 30, 91, 30, 52, 49, 43, 50, 38, 64, 73, 47, 45, 46, 12, 47, 10, 65, 51, 31, 43, 62, 55, 49, 64, 18, 36, 18, 50, 65, 31, 16, 65, 29, 40, 66, 52, 14, 65, 67, 19, 70, 78, 46, 53, 90, 17, 55, 66, 38, 50, 59, 60, 76, 36, 52, 93, 67, 11, 45, 9, 98, 40, 38, 82, 62, 50, 93, 41, 37, 69, 62, 83, 79, 30, 37, 47, 26
              |59, 80, 19, 50, 45, 63, 43, 60, 43, 67, 35, 41, 42, 52, 26, 47, 20, 86, 47, 19, 40, 11, 21, 41, 30, 48, 40, 45, 51, 37, 23, 54, 30, 34, 51, 7, 65, 67, 26, 61, 61, 6, 8, 7, 12, 8, 40, 50, 84, 31, 67, 70, 21, 74, 29, 86, 54, 48, 66, 19, 73, 80, 57, 51, 55, 42, 42, 33, 24, 28, 75, 29, 73, 41, 25, 21, 19, 52, 24, 84, 37, 43, 59, 86, 77, 79, 66, 9, 25, 67, 88, 81, 38, 46, 80, 57, 68, 28, 39, 35, 47, 70, 49, 41, 40, 61, 43, 74, 20, 45, 63, 38, 67, 27, 32, 79, 69, 73, 41, 44, 28, 77, 32, 40, 44, 52, 80, 39, 16, 16, 78, 58, 73, 14, 36, 73, 67, 65, 55, 84, 63, 48, 39, 31, 50, 67, 50, 5, 25, 47, 49, 60, 91, 51, 83, 90, 30, 71, 32, 14, 68, 40, 74, 25, 82, 66, 72, 16, 26, 24, 42, 77, 56, 56, 25, 40, 33, 45, 77, 56, 28, 78, 8, 16, 28, 15, 60, 32, 29, 35, 37, 12, 70, 59, 30, 74, 31, 23, 52, 44, 74, 51, 63, 79, 82, 3, 42, 55, 57, 43, 51, 31, 50, 60, 38, 14, 64, 37, 58, 84, 37, 42, 51, 84, 32, 81, 33, 46, 83, 46, 52, 54, 59, 74, 46, 32, 65, 41, 85, 14, 71, 87, 36, 76, 36, 50, 62, 63, 74, 81, 41, 12, 82, 77, 95, 77, 38, 57, 86, 71, 13, 80, 63, 43, 55, 67, 40, 20, 84, 22, 52, 53, 45, 30, 70, 25, 43, 40, 20, 19, 84, 39, 82, 34, 87, 61, 17, 84, 81, 51, 48, 62, 16, 69, 6, 27, 50, 52, 45, 59
              |73, 96, 36, 34, 60, 82, 37, 76, 48, 73, 55, 59, 57, 44, 47, 67, 40, 102, 65, 37, 59, 27, 41, 42, 38, 67, 58, 65, 60, 57, 43, 42, 41, 52, 50, 13, 81, 80, 19, 65, 68, 17, 19, 13, 8, 16, 51, 34, 98, 51, 79, 65, 41, 79, 43, 97, 62, 55, 82, 39, 89, 78, 74, 54, 62, 43, 51, 13, 43, 13, 86, 44, 82, 28, 30, 38, 26, 71, 43, 83, 23, 30, 79, 100, 90, 94, 74, 22, 34, 81, 88, 98, 31, 64, 81, 60, 82, 48, 34, 55, 64, 89, 69, 23, 56, 79, 37, 88, 0, 64, 82, 38, 80, 26, 49, 87, 63, 84, 21, 33, 47, 82, 32, 35, 46, 47, 77, 52, 24, 23, 80, 54, 70, 6, 46, 73, 64, 83, 76, 85, 65, 48, 32, 50, 71, 86, 67, 25, 34, 66, 31, 62, 107, 43, 89, 91, 10, 82, 52, 34, 85, 55, 83, 5, 83, 77, 73, 5, 43, 38, 61, 90, 66, 67, 46, 50, 52, 65, 95, 57, 9, 91, 20, 34, 44, 35, 76, 22, 46, 50, 49, 32, 65, 78, 12, 77, 43, 38, 47, 55, 73, 37, 81, 97, 81, 18, 52, 71, 63, 62, 69, 51, 37, 53, 58, 8, 63, 17, 59, 101, 18, 26, 37, 90, 14, 87, 52, 66, 86, 49, 70, 74, 52, 76, 51, 44, 78, 47, 99, 26, 71, 104, 47, 74, 39, 69, 58, 74, 79, 90, 45, 30, 99, 93, 94, 83, 51, 53, 87, 86, 26, 77, 73, 37, 46, 69, 60, 1, 94, 36, 47, 59, 64, 50, 68, 44, 60, 43, 6, 23, 95, 46, 96, 14, 91, 79, 8, 83, 82, 68, 67, 67, 21, 66, 17, 17, 66, 70, 64, 68
              |12, 33, 44, 80, 20, 49, 52, 21, 29, 21, 66, 32, 23, 58, 52, 64, 51, 35, 30, 68, 74, 51, 50, 39, 36, 39, 79, 62, 15, 52, 52, 69, 33, 74, 41, 66, 21, 9, 58, 27, 15, 60, 70, 67, 68, 60, 23, 79, 26, 63, 6, 56, 49, 26, 34, 24, 16, 23, 19, 63, 29, 51, 31, 30, 18, 38, 23, 85, 44, 69, 13, 80, 13, 67, 44, 71, 47, 41, 46, 52, 68, 66, 52, 28, 18, 25, 13, 71, 40, 12, 50, 37, 55, 81, 41, 30, 15, 64, 51, 64, 25, 45, 66, 78, 25, 38, 53, 17, 74, 72, 39, 42, 10, 50, 77, 20, 59, 11, 90, 64, 45, 28, 46, 50, 36, 52, 52, 23, 77, 78, 39, 50, 50, 68, 28, 42, 49, 34, 55, 44, 31, 37, 54, 69, 65, 41, 26, 59, 40, 74, 84, 32, 40, 56, 29, 48, 83, 9, 60, 55, 29, 25, 13, 75, 43, 4, 39, 73, 38, 39, 47, 18, 9, 7, 53, 23, 67, 42, 42, 36, 83, 17, 70, 68, 76, 58, 21, 62, 38, 29, 25, 57, 55, 38, 74, 31, 32, 40, 50, 19, 45, 73, 31, 41, 50, 65, 22, 22, 20, 44, 84, 51, 70, 59, 55, 72, 40, 81, 34, 42, 79, 74, 73, 28, 74, 26, 43, 44, 36, 33, 34, 60, 57, 36, 28, 31, 8, 30, 27, 49, 39, 43, 27, 50, 38, 45, 49, 2, 27, 20, 33, 51, 41, 27, 58, 23, 24, 50, 44, 21, 50, 55, 4, 53, 62, 33, 45, 74, 22, 40, 50, 21, 44, 49, 47, 66, 26, 35, 77, 51, 21, 28, 25, 81, 36, 38, 66, 52, 41, 86, 36, 23, 53, 49, 69, 62, 22, 33, 41, 10
              |14, 26, 51, 89, 26, 48, 61, 20, 38, 27, 71, 36, 29, 67, 57, 67, 57, 27, 33, 74, 78, 59, 56, 48, 45, 41, 83, 64, 24, 56, 57, 78, 42, 79, 50, 74, 18, 4, 67, 35, 23, 68, 78, 75, 76, 68, 31, 88, 17, 67, 4, 64, 55, 30, 42, 15, 25, 32, 15, 69, 24, 57, 30, 39, 27, 47, 32, 93, 50, 79, 9, 86, 13, 76, 53, 77, 56, 42, 52, 57, 77, 76, 52, 18, 9, 17, 18, 79, 48, 8, 54, 30, 64, 85, 45, 38, 10, 69, 60, 69, 28, 42, 69, 88, 31, 37, 62, 9, 82, 75, 38, 52, 6, 59, 83, 19, 66, 6, 99, 74, 50, 32, 55, 59, 45, 61, 58, 31, 84, 86, 44, 58, 57, 77, 37, 48, 56, 31, 56, 49, 39, 46, 64, 74, 67, 39, 29, 67, 48, 77, 94, 40, 31, 65, 30, 52, 92, 6, 65, 62, 25, 31, 13, 84, 47, 9, 45, 82, 45, 47, 50, 8, 18, 16, 59, 32, 72, 44, 37, 45, 92, 8, 78, 75, 82, 65, 20, 71, 44, 36, 34, 64, 62, 37, 83, 36, 40, 48, 59, 27, 51, 82, 29, 36, 55, 73, 31, 23, 28, 47, 87, 56, 79, 68, 58, 81, 47, 90, 43, 35, 88, 84, 82, 28, 83, 27, 47, 46, 39, 42, 35, 61, 66, 41, 37, 39, 6, 39, 18, 57, 45, 36, 36, 56, 47, 46, 57, 10, 31, 17, 42, 59, 35, 20, 62, 25, 32, 59, 48, 16, 58, 61, 12, 62, 71, 40, 49, 83, 17, 48, 59, 30, 47, 54, 54, 71, 31, 45, 86, 60, 14, 37, 16, 91, 37, 37, 74, 57, 45, 90, 38, 30, 61, 56, 76, 71, 25, 34, 44, 19
              |19, 44, 22, 66, 8, 43, 41, 24, 20, 33, 47, 17, 7, 50, 31, 49, 29, 49, 20, 46, 55, 30, 29, 28, 19, 28, 59, 46, 15, 35, 31, 59, 13, 54, 36, 44, 28, 26, 41, 32, 25, 39, 49, 46, 47, 39, 6, 66, 44, 43, 26, 56, 28, 40, 12, 45, 20, 18, 28, 42, 37, 58, 27, 27, 21, 28, 11, 65, 22, 52, 35, 59, 34, 53, 26, 49, 27, 31, 25, 60, 53, 53, 44, 46, 37, 40, 29, 49, 20, 27, 60, 46, 42, 63, 51, 32, 28, 43, 39, 46, 15, 44, 51, 62, 7, 34, 42, 34, 54, 54, 36, 30, 27, 33, 57, 40, 58, 33, 72, 52, 25, 43, 31, 38, 28, 45, 58, 1, 55, 56, 50, 46, 53, 48, 11, 48, 50, 34, 44, 55, 36, 31, 42, 49, 50, 40, 18, 37, 20, 57, 69, 34, 54, 48, 47, 61, 63, 31, 41, 33, 34, 6, 35, 55, 54, 26, 46, 52, 16, 17, 31, 37, 17, 16, 33, 8, 48, 29, 46, 35, 63, 38, 48, 47, 55, 37, 24, 46, 17, 8, 6, 35, 55, 33, 56, 42, 11, 18, 43, 6, 51, 61, 31, 47, 58, 44, 10, 20, 25, 29, 66, 32, 59, 54, 38, 51, 42, 64, 35, 50, 62, 60, 61, 47, 57, 44, 24, 31, 50, 26, 26, 47, 52, 45, 21, 10, 24, 19, 45, 28, 45, 53, 9, 55, 24, 33, 48, 23, 41, 41, 23, 29, 49, 40, 69, 40, 4, 46, 57, 33, 28, 60, 23, 42, 54, 40, 30, 54, 44, 19, 43, 22, 30, 30, 50, 45, 12, 24, 57, 31, 43, 15, 42, 63, 52, 34, 46, 60, 52, 68, 25, 30, 33, 50, 47, 45, 15, 25, 28, 21
              |31, 51, 53, 72, 35, 68, 44, 40, 26, 2, 80, 48, 37, 47, 64, 81, 62, 52, 48, 78, 88, 57, 61, 33, 38, 57, 92, 78, 18, 67, 64, 58, 38, 87, 30, 69, 41, 27, 56, 12, 8, 64, 76, 71, 70, 63, 30, 71, 40, 76, 23, 39, 60, 7, 43, 33, 14, 20, 38, 74, 48, 32, 50, 21, 13, 32, 26, 83, 55, 67, 20, 90, 14, 60, 45, 81, 50, 59, 58, 32, 63, 59, 71, 41, 34, 42, 7, 77, 44, 31, 30, 55, 49, 96, 21, 17, 34, 76, 44, 79, 42, 65, 83, 73, 39, 57, 45, 34, 74, 87, 59, 37, 29, 49, 89, 15, 42, 21, 87, 56, 58, 10, 43, 43, 29, 40, 33, 33, 84, 84, 20, 36, 32, 70, 32, 23, 32, 53, 73, 25, 15, 29, 48, 82, 82, 61, 44, 66, 44, 89, 77, 17, 56, 46, 15, 29, 82, 19, 74, 65, 49, 38, 15, 74, 23, 17, 20, 75, 49, 47, 63, 32, 16, 19, 66, 29, 81, 59, 62, 23, 83, 29, 76, 78, 87, 68, 40, 58, 49, 41, 33, 66, 38, 57, 71, 11, 38, 48, 38, 27, 26, 64, 50, 60, 30, 71, 27, 41, 11, 60, 99, 65, 61, 45, 70, 75, 23, 78, 21, 60, 75, 68, 64, 16, 71, 13, 57, 61, 18, 26, 52, 78, 44, 16, 23, 37, 27, 28, 40, 54, 20, 61, 33, 31, 35, 62, 34, 17, 8, 19, 29, 59, 60, 45, 38, 9, 33, 37, 25, 40, 55, 36, 16, 45, 50, 15, 62, 75, 23, 47, 38, 15, 61, 63, 29, 77, 42, 31, 79, 52, 27, 29, 40, 79, 19, 57, 66, 32, 21, 101, 54, 8, 55, 31, 74, 59, 40, 51, 58, 12
              |49, 71, 59, 59, 50, 85, 34, 59, 28, 18, 90, 62, 51, 33, 74, 93, 69, 73, 63, 84, 98, 61, 69, 29, 41, 72, 101, 90, 31, 79, 72, 43, 44, 95, 20, 69, 60, 47, 51, 13, 24, 65, 77, 71, 68, 63, 40, 58, 61, 86, 43, 19, 68, 18, 51, 53, 26, 27, 58, 80, 68, 13, 67, 20, 24, 28, 34, 76, 64, 60, 40, 96, 35, 49, 45, 87, 51, 75, 67, 16, 53, 48, 87, 61, 54, 63, 27, 79, 47, 51, 18, 75, 40, 105, 11, 13, 54, 85, 36, 89, 58, 83, 95, 63, 52, 75, 35, 55, 70, 98, 77, 33, 49, 45, 97, 34, 23, 41, 78, 45, 67, 19, 39, 35, 25, 27, 14, 44, 85, 85, 10, 20, 11, 67, 39, 4, 13, 72, 89, 14, 9, 22, 39, 91, 95, 79, 60, 69, 47, 100, 65, 11, 76, 32, 27, 21, 76, 40, 84, 70, 68, 51, 35, 68, 13, 37, 3, 72, 57, 54, 76, 53, 33, 36, 75, 38, 90, 73, 81, 14, 77, 49, 77, 83, 93, 74, 59, 50, 59, 52, 42, 71, 18, 74, 64, 12, 45, 54, 25, 38, 6, 50, 69, 80, 13, 72, 35, 58, 21, 74, 109, 75, 47, 28, 82, 73, 7, 69, 12, 80, 66, 57, 50, 30, 63, 27, 68, 76, 18, 24, 69, 92, 27, 7, 25, 45, 47, 30, 61, 56, 1, 82, 40, 11, 34, 77, 17, 37, 17, 38, 29, 63, 80, 65, 26, 25, 43, 21, 17, 60, 57, 16, 35, 35, 35, 6, 74, 71, 42, 52, 25, 22, 75, 73, 9, 85, 56, 30, 76, 51, 47, 34, 60, 71, 25, 75, 63, 16, 12, 110, 69, 16, 55, 11, 74, 53, 56, 67, 72, 29
              |51, 61, 30, 86, 40, 32, 71, 46, 59, 76, 7, 28, 38, 81, 14, 10, 20, 68, 31, 23, 14, 35, 19, 63, 48, 25, 19, 8, 57, 9, 16, 86, 43, 16, 73, 44, 51, 60, 59, 74, 67, 41, 40, 44, 49, 43, 47, 86, 72, 7, 62, 94, 21, 82, 36, 78, 62, 60, 53, 19, 54, 99, 37, 67, 64, 63, 52, 70, 23, 64, 72, 28, 73, 75, 50, 24, 45, 26, 21, 102, 72, 76, 27, 74, 67, 64, 70, 38, 44, 58, 103, 60, 68, 21, 93, 73, 57, 11, 67, 5, 36, 42, 12, 78, 36, 36, 71, 64, 57, 12, 38, 62, 59, 56, 22, 80, 94, 70, 78, 77, 19, 85, 58, 67, 64, 79, 99, 42, 40, 42, 92, 82, 93, 51, 47, 90, 89, 43, 21, 98, 77, 68, 68, 13, 13, 41, 36, 33, 44, 14, 86, 76, 72, 79, 88, 103, 66, 68, 5, 24, 49, 37, 74, 62, 96, 65, 88, 53, 29, 34, 15, 68, 59, 57, 13, 48, 9, 21, 52, 75, 65, 71, 39, 26, 24, 23, 46, 66, 27, 35, 44, 25, 93, 35, 67, 85, 41, 34, 77, 49, 92, 85, 43, 55, 100, 39, 51, 41, 67, 18, 24, 11, 83, 88, 6, 50, 82, 74, 75, 61, 74, 78, 85, 88, 69, 86, 18, 20, 93, 64, 31, 18, 86, 87, 61, 42, 58, 57, 73, 39, 87, 64, 46, 96, 57, 22, 85, 62, 83, 80, 60, 31, 58, 61, 111, 82, 43, 82, 99, 57, 38, 100, 63, 71, 85, 82, 16, 57, 82, 36, 77, 64, 19, 13, 90, 15, 34, 59, 56, 48, 78, 53, 70, 71, 94, 36, 54, 102, 94, 26, 27, 73, 46, 90, 41, 61, 39, 32, 21, 63
              |15, 37, 44, 77, 22, 53, 49, 24, 26, 17, 68, 34, 25, 55, 53, 67, 52, 39, 33, 69, 76, 51, 51, 36, 35, 42, 80, 64, 13, 54, 53, 66, 32, 75, 38, 65, 25, 12, 56, 23, 11, 60, 70, 67, 67, 59, 22, 76, 29, 64, 9, 52, 50, 22, 34, 26, 13, 20, 23, 64, 33, 47, 34, 27, 14, 35, 21, 83, 45, 68, 13, 81, 11, 65, 43, 72, 46, 44, 47, 48, 66, 64, 56, 30, 22, 29, 9, 71, 39, 16, 46, 41, 52, 83, 37, 27, 19, 65, 48, 66, 28, 49, 69, 76, 26, 42, 50, 21, 72, 74, 43, 40, 14, 48, 79, 18, 55, 12, 88, 62, 46, 25, 44, 47, 33, 49, 48, 23, 77, 78, 35, 46, 46, 67, 27, 38, 45, 37, 58, 40, 27, 34, 52, 71, 68, 45, 29, 59, 39, 76, 82, 28, 43, 53, 26, 45, 81, 10, 62, 56, 33, 26, 12, 73, 39, 4, 35, 72, 39, 39, 49, 21, 7, 6, 55, 22, 69, 45, 46, 33, 82, 19, 70, 69, 77, 59, 24, 60, 39, 30, 25, 58, 51, 41, 72, 27, 31, 40, 46, 18, 41, 70, 34, 45, 46, 65, 21, 26, 16, 46, 86, 53, 67, 55, 57, 71, 36, 79, 31, 46, 77, 72, 70, 25, 72, 23, 44, 47, 33, 30, 37, 63, 54, 32, 25, 30, 12, 27, 30, 48, 35, 47, 26, 46, 36, 48, 46, 2, 23, 19, 31, 51, 45, 31, 54, 20, 24, 47, 41, 25, 49, 51, 1, 50, 59, 29, 48, 73, 22, 40, 46, 18, 47, 51, 43, 67, 28, 33, 76, 49, 22, 26, 28, 80, 33, 42, 64, 48, 37, 88, 39, 19, 52, 45, 68, 60, 25, 36, 44, 7
              |24, 15, 63, 105, 37, 47, 77, 24, 54, 42, 77, 44, 40, 83, 65, 70, 67, 13, 39, 83, 83, 72, 66, 64, 60, 45, 89, 68, 40, 61, 66, 94, 56, 85, 66, 87, 19, 17, 82, 50, 38, 81, 90, 88, 89, 81, 45, 104, 2, 74, 19, 79, 65, 43, 54, 12, 41, 48, 17, 78, 18, 71, 33, 55, 42, 63, 47, 108, 60, 93, 20, 94, 25, 92, 68, 86, 70, 45, 62, 70, 93, 91, 52, 4, 6, 6, 33, 90, 62, 16, 66, 19, 80, 90, 58, 54, 15, 76, 76, 75, 36, 38, 71, 103, 42, 36, 78, 8, 96, 79, 36, 67, 16, 74, 90, 29, 82, 19, 114, 89, 59, 44, 70, 75, 61, 77, 72, 44, 96, 97, 57, 74, 72, 90, 51, 63, 72, 29, 57, 61, 54, 62, 79, 81, 70, 35, 35, 78, 62, 81, 109, 55, 16, 81, 40, 63, 106, 20, 71, 72, 22, 42, 25, 98, 60, 24, 59, 95, 56, 59, 55, 8, 34, 31, 67, 47, 78, 49, 30, 60, 106, 11, 90, 85, 90, 75, 24, 87, 54, 47, 48, 75, 77, 37, 98, 50, 53, 60, 74, 42, 66, 98, 28, 27, 68, 85, 46, 29, 44, 51, 91, 63, 95, 83, 64, 94, 62, 105, 58, 24, 103, 99, 98, 37, 98, 38, 55, 50, 51, 58, 39, 63, 81, 55, 52, 52, 19, 54, 3, 70, 60, 24, 50, 71, 62, 49, 73, 26, 44, 25, 58, 70, 25, 11, 73, 37, 46, 74, 60, 13, 71, 75, 27, 78, 87, 54, 54, 97, 23, 61, 74, 46, 51, 62, 69, 79, 40, 60, 99, 74, 17, 52, 0, 105, 47, 36, 88, 70, 58, 94, 42, 46, 75, 71, 89, 86, 33, 37, 49, 35
              |62, 72, 39, 90, 52, 41, 78, 58, 68, 87, 6, 40, 49, 88, 23, 14, 28, 79, 43, 22, 2, 41, 27, 71, 57, 36, 8, 14, 68, 20, 24, 92, 53, 9, 82, 47, 62, 72, 65, 85, 78, 45, 40, 46, 52, 47, 57, 90, 83, 11, 74, 103, 29, 93, 45, 89, 73, 70, 65, 21, 65, 109, 49, 77, 74, 72, 62, 71, 33, 68, 84, 21, 85, 80, 57, 22, 52, 37, 30, 112, 77, 82, 35, 85, 78, 76, 82, 38, 52, 69, 113, 71, 75, 9, 104, 83, 68, 13, 74, 8, 48, 52, 14, 81, 48, 47, 79, 75, 59, 6, 48, 70, 71, 63, 14, 92, 103, 82, 79, 82, 29, 96, 66, 75, 73, 87, 109, 53, 38, 40, 103, 91, 103, 54, 57, 100, 98, 54, 29, 108, 88, 77, 75, 9, 17, 51, 47, 36, 52, 7, 89, 86, 83, 87, 100, 114, 67, 80, 13, 29, 60, 48, 85, 64, 107, 76, 98, 54, 39, 43, 27, 80, 70, 68, 21, 59, 7, 33, 62, 84, 65, 83, 39, 25, 18, 27, 58, 71, 37, 45, 54, 30, 102, 46, 70, 96, 51, 42, 85, 60, 102, 91, 54, 65, 110, 41, 62, 53, 78, 30, 13, 21, 89, 96, 18, 51, 92, 76, 85, 71, 77, 82, 91, 99, 72, 97, 30, 31, 104, 74, 43, 24, 94, 98, 71, 52, 70, 66, 84, 46, 97, 75, 56, 105, 66, 33, 94, 74, 94, 92, 69, 37, 68, 72, 122, 93, 54, 90, 110, 68, 45, 110, 75, 79, 92, 92, 27, 58, 93, 45, 85, 75, 30, 23, 100, 15, 46, 69, 57, 55, 90, 62, 81, 73, 105, 47, 57, 112, 105, 14, 39, 84, 52, 99, 42, 66, 51, 44, 33, 75
              |44, 68, 10, 48, 31, 57, 31, 47, 26, 50, 41, 31, 29, 41, 26, 49, 20, 73, 37, 30, 48, 7, 20, 25, 13, 41, 50, 46, 34, 36, 24, 46, 13, 43, 36, 19, 52, 51, 21, 44, 43, 14, 25, 21, 22, 14, 23, 48, 69, 36, 51, 56, 19, 57, 14, 70, 37, 31, 53, 28, 60, 65, 46, 34, 37, 26, 25, 41, 18, 29, 59, 43, 56, 36, 10, 33, 5, 45, 20, 69, 34, 37, 55, 71, 62, 65, 49, 27, 7, 52, 71, 69, 28, 55, 63, 41, 53, 34, 28, 40, 35, 62, 51, 42, 27, 52, 32, 60, 29, 51, 54, 24, 52, 16, 44, 62, 56, 57, 48, 37, 23, 60, 19, 28, 28, 40, 65, 24, 33, 33, 62, 44, 58, 23, 19, 57, 52, 55, 53, 67, 46, 32, 29, 39, 52, 59, 38, 16, 7, 53, 49, 43, 78, 40, 66, 73, 39, 55, 35, 18, 57, 26, 57, 31, 66, 50, 56, 27, 16, 10, 38, 62, 39, 40, 27, 23, 40, 39, 67, 40, 38, 63, 25, 29, 40, 21, 47, 27, 19, 21, 21, 18, 56, 51, 33, 57, 15, 9, 39, 27, 59, 46, 52, 69, 67, 20, 25, 43, 40, 37, 59, 30, 44, 49, 38, 26, 48, 41, 42, 73, 40, 41, 46, 66, 34, 64, 28, 41, 66, 30, 43, 53, 47, 57, 29, 16, 49, 24, 70, 3, 54, 76, 19, 61, 20, 44, 48, 47, 57, 64, 25, 10, 71, 64, 79, 60, 22, 44, 69, 57, 4, 65, 46, 32, 45, 51, 36, 29, 67, 7, 39, 36, 40, 28, 55, 33, 31, 24, 32, 9, 67, 22, 68, 40, 69, 52, 21, 69, 64, 60, 40, 45, 9, 54, 23, 23, 37, 42, 38, 42
              |63, 89, 42, 21, 54, 87, 9, 70, 30, 51, 72, 60, 53, 13, 58, 81, 52, 93, 65, 59, 79, 37, 52, 21, 28, 70, 80, 78, 45, 68, 56, 14, 34, 73, 23, 36, 74, 67, 14, 41, 48, 34, 45, 38, 33, 32, 41, 20, 86, 68, 65, 34, 51, 55, 42, 82, 44, 37, 73, 58, 83, 48, 73, 31, 43, 21, 38, 34, 50, 19, 69, 69, 64, 8, 23, 61, 27, 75, 52, 53, 11, 7, 86, 87, 78, 84, 55, 48, 30, 70, 58, 92, 4, 85, 53, 35, 72, 66, 8, 72, 61, 90, 84, 21, 52, 80, 7, 76, 31, 82, 82, 17, 69, 16, 72, 67, 32, 68, 36, 5, 55, 58, 16, 9, 24, 16, 47, 45, 52, 52, 52, 23, 40, 31, 36, 44, 34, 81, 84, 56, 40, 24, 5, 70, 84, 86, 64, 43, 30, 84, 25, 37, 98, 12, 65, 62, 35, 66, 67, 49, 81, 51, 65, 28, 55, 61, 45, 35, 46, 40, 69, 77, 50, 53, 59, 39, 71, 70, 93, 30, 37, 76, 46, 56, 68, 52, 70, 9, 49, 48, 41, 48, 34, 79, 23, 51, 38, 40, 17, 44, 44, 15, 78, 93, 51, 41, 39, 67, 43, 68, 90, 62, 12, 22, 70, 37, 35, 27, 33, 96, 24, 16, 15, 67, 21, 64, 59, 72, 60, 27, 71, 85, 21, 49, 32, 38, 66, 30, 86, 33, 43, 99, 38, 44, 22, 75, 27, 59, 55, 71, 26, 41, 95, 84, 64, 61, 43, 22, 59, 77, 34, 46, 57, 7, 15, 43, 67, 33, 75, 37, 17, 39, 70, 60, 38, 64, 57, 24, 37, 24, 77, 32, 84, 29, 66, 80, 26, 53, 54, 90, 69, 44, 26, 36, 42, 15, 61, 70, 69, 50
              |18, 28, 35, 89, 16, 21, 64, 11, 43, 49, 42, 12, 16, 73, 32, 37, 35, 34, 6, 50, 49, 44, 34, 52, 41, 11, 55, 35, 34, 27, 34, 82, 35, 51, 59, 59, 15, 26, 62, 52, 41, 54, 60, 60, 63, 54, 29, 88, 36, 40, 29, 78, 33, 55, 29, 42, 38, 40, 17, 45, 20, 77, 4, 49, 40, 52, 34, 83, 29, 72, 39, 60, 41, 76, 47, 53, 47, 12, 30, 79, 75, 76, 23, 38, 31, 29, 41, 59, 40, 23, 78, 28, 65, 56, 68, 53, 22, 42, 62, 40, 8, 21, 38, 84, 17, 11, 65, 28, 71, 46, 13, 54, 25, 55, 56, 48, 80, 36, 91, 75, 27, 57, 53, 61, 51, 68, 78, 25, 64, 66, 67, 69, 75, 64, 34, 68, 72, 12, 26, 72, 56, 54, 65, 47, 37, 17, 5, 49, 40, 47, 91, 55, 39, 71, 58, 77, 81, 35, 37, 41, 15, 18, 42, 74, 71, 33, 65, 68, 28, 33, 20, 33, 32, 29, 34, 31, 44, 15, 24, 57, 80, 36, 60, 52, 56, 43, 11, 68, 25, 22, 29, 43, 77, 10, 76, 59, 32, 33, 66, 28, 71, 84, 10, 26, 77, 56, 33, 7, 44, 17, 58, 29, 82, 77, 29, 66, 63, 83, 57, 31, 82, 81, 84, 57, 77, 55, 22, 16, 65, 49, 5, 31, 75, 63, 44, 31, 24, 42, 37, 45, 65, 34, 32, 75, 48, 16, 70, 31, 56, 47, 46, 41, 28, 26, 86, 52, 27, 69, 73, 21, 45, 81, 33, 65, 77, 59, 20, 71, 48, 36, 66, 43, 17, 28, 71, 45, 12, 48, 72, 51, 44, 38, 34, 82, 65, 11, 64, 79, 69, 60, 8, 49, 51, 72, 59, 65, 9, 4, 14, 36
              |24, 19, 63, 103, 37, 50, 74, 25, 52, 38, 78, 45, 40, 80, 66, 72, 67, 17, 40, 84, 85, 71, 66, 62, 58, 47, 91, 70, 38, 63, 67, 91, 55, 87, 63, 86, 21, 16, 81, 47, 36, 81, 90, 88, 89, 80, 44, 102, 4, 76, 17, 75, 65, 40, 53, 8, 38, 45, 18, 79, 21, 67, 35, 52, 40, 61, 45, 107, 60, 92, 16, 95, 22, 90, 66, 87, 69, 47, 62, 66, 91, 89, 55, 5, 5, 10, 30, 90, 61, 15, 62, 23, 78, 92, 54, 51, 15, 77, 74, 76, 37, 41, 74, 101, 42, 39, 76, 8, 95, 81, 39, 65, 15, 73, 91, 25, 78, 15, 112, 87, 60, 40, 68, 73, 59, 74, 68, 43, 96, 97, 53, 71, 68, 90, 50, 59, 68, 32, 59, 57, 51, 60, 77, 82, 72, 38, 36, 78, 61, 83, 107, 52, 20, 78, 36, 59, 105, 17, 73, 73, 25, 42, 22, 97, 56, 21, 56, 94, 56, 59, 56, 5, 32, 29, 68, 45, 80, 50, 34, 57, 105, 7, 89, 85, 91, 75, 25, 85, 55, 47, 47, 75, 74, 39, 96, 46, 52, 59, 72, 40, 62, 96, 30, 31, 64, 85, 45, 30, 41, 53, 93, 64, 93, 80, 65, 93, 59, 104, 55, 28, 102, 97, 96, 33, 97, 34, 56, 52, 47, 55, 41, 65, 79, 51, 50, 51, 17, 52, 4, 70, 56, 28, 49, 67, 60, 51, 70, 23, 41, 21, 56, 70, 29, 14, 69, 33, 45, 71, 56, 15, 70, 72, 25, 76, 84, 51, 56, 96, 19, 60, 72, 43, 53, 63, 65, 80, 40, 58, 99, 72, 13, 51, 4, 104, 43, 39, 87, 66, 54, 96, 44, 42, 74, 67, 88, 84, 34, 39, 50, 32
              |41, 44, 40, 98, 36, 12, 78, 34, 61, 72, 27, 24, 35, 88, 27, 16, 34, 50, 22, 43, 32, 48, 32, 67, 54, 14, 38, 15, 55, 16, 30, 95, 48, 36, 76, 60, 37, 49, 71, 73, 63, 56, 58, 61, 65, 58, 47, 98, 57, 27, 52, 97, 33, 77, 40, 64, 59, 59, 39, 38, 37, 98, 23, 68, 61, 68, 52, 86, 32, 78, 62, 48, 64, 86, 58, 44, 55, 11, 31, 101, 84, 87, 6, 59, 53, 49, 64, 56, 51, 46, 100, 42, 77, 37, 91, 73, 44, 31, 75, 25, 28, 22, 17, 91, 34, 19, 79, 50, 73, 26, 19, 68, 48, 65, 42, 71, 98, 60, 94, 86, 27, 80, 66, 75, 68, 84, 99, 42, 59, 62, 89, 86, 95, 67, 50, 89, 91, 26, 3, 95, 77, 71, 77, 34, 15, 22, 26, 48, 51, 27, 99, 75, 54, 86, 81, 100, 83, 59, 25, 39, 33, 35, 65, 77, 93, 57, 87, 69, 35, 41, 12, 55, 54, 51, 28, 49, 30, 12, 32, 76, 82, 59, 57, 45, 44, 39, 34, 77, 32, 36, 45, 41, 96, 18, 81, 81, 45, 41, 83, 47, 92, 96, 27, 36, 98, 56, 51, 30, 65, 13, 37, 22, 94, 94, 16, 67, 83, 89, 76, 42, 89, 90, 96, 80, 83, 79, 22, 10, 88, 67, 18, 8, 92, 85, 62, 45, 48, 59, 58, 51, 86, 45, 48, 96, 62, 8, 88, 55, 78, 70, 63, 44, 39, 45, 109, 75, 43, 86, 95, 42, 50, 101, 56, 79, 92, 80, 14, 73, 71, 44, 83, 63, 11, 24, 91, 35, 30, 64, 73, 59, 67, 55, 55, 87, 88, 19, 68, 101, 91, 40, 17, 70, 58, 91, 58, 73, 31, 20, 13, 59
              |40, 42, 41, 99, 35, 10, 78, 32, 60, 70, 29, 24, 34, 88, 28, 18, 34, 49, 21, 44, 34, 48, 33, 67, 54, 13, 40, 17, 54, 18, 31, 95, 48, 38, 76, 61, 35, 48, 71, 72, 62, 57, 59, 62, 66, 59, 46, 98, 55, 29, 51, 97, 34, 76, 40, 63, 59, 59, 38, 40, 35, 98, 21, 67, 60, 67, 52, 87, 33, 79, 61, 50, 63, 86, 58, 46, 55, 10, 31, 100, 84, 87, 5, 57, 51, 47, 63, 57, 51, 44, 99, 40, 77, 39, 90, 72, 42, 32, 75, 27, 27, 20, 19, 92, 33, 17, 79, 48, 74, 28, 17, 68, 46, 66, 44, 70, 98, 58, 95, 87, 28, 79, 66, 75, 68, 84, 98, 41, 61, 63, 88, 86, 94, 68, 49, 88, 90, 24, 4, 94, 76, 71, 77, 35, 17, 20, 25, 49, 51, 29, 100, 75, 52, 86, 80, 98, 84, 57, 27, 40, 31, 34, 64, 78, 92, 55, 86, 70, 35, 41, 13, 53, 53, 50, 29, 48, 32, 12, 30, 76, 83, 57, 58, 47, 46, 41, 32, 78, 32, 35, 45, 42, 96, 16, 82, 80, 45, 42, 82, 46, 91, 96, 25, 34, 98, 57, 51, 29, 64, 13, 39, 24, 94, 93, 18, 68, 82, 90, 76, 40, 89, 91, 96, 79, 84, 77, 23, 10, 87, 66, 17, 10, 91, 84, 62, 45, 46, 59, 56, 51, 85, 43, 48, 95, 62, 7, 88, 53, 77, 69, 63, 45, 37, 43, 108, 74, 43, 86, 94, 40, 51, 100, 55, 79, 92, 79, 15, 74, 69, 45, 82, 62, 11, 25, 91, 37, 29, 63, 74, 60, 65, 55, 53, 88, 87, 17, 69, 100, 90, 42, 16, 69, 59, 91, 59, 74, 30, 18, 13, 57
              |54, 75, 65, 63, 55, 91, 39, 63, 35, 22, 96, 68, 57, 36, 80, 99, 76, 76, 69, 90, 104, 67, 76, 35, 47, 77, 107, 96, 37, 85, 78, 47, 50, 101, 26, 75, 64, 51, 57, 18, 29, 71, 83, 77, 74, 69, 46, 62, 63, 92, 47, 20, 74, 20, 57, 55, 32, 33, 62, 87, 72, 8, 72, 26, 30, 34, 41, 81, 70, 65, 43, 102, 37, 54, 51, 93, 57, 81, 73, 9, 58, 52, 93, 64, 57, 66, 31, 85, 53, 55, 12, 79, 45, 112, 7, 20, 58, 91, 42, 95, 63, 88, 102, 67, 58, 80, 40, 58, 76, 104, 82, 39, 53, 51, 103, 35, 24, 44, 83, 49, 74, 20, 45, 41, 32, 31, 9, 50, 91, 91, 7, 24, 11, 73, 45, 3, 15, 76, 94, 9, 15, 29, 44, 97, 101, 84, 66, 75, 53, 107, 69, 17, 79, 36, 27, 15, 82, 43, 90, 77, 73, 57, 38, 74, 8, 41, 4, 78, 64, 60, 82, 56, 38, 41, 81, 44, 96, 79, 85, 20, 83, 52, 84, 89, 100, 80, 63, 55, 65, 58, 48, 78, 19, 79, 69, 13, 52, 61, 30, 44, 4, 54, 74, 84, 7, 78, 41, 64, 26, 80, 115, 82, 51, 31, 88, 79, 13, 74, 18, 84, 71, 61, 54, 30, 68, 27, 74, 81, 16, 30, 74, 98, 30, 8, 32, 51, 51, 37, 64, 62, 6, 85, 47, 8, 40, 83, 20, 41, 19, 40, 35, 69, 84, 69, 19, 27, 49, 25, 12, 64, 64, 12, 39, 40, 38, 11, 80, 77, 43, 59, 30, 28, 81, 80, 10, 91, 62, 36, 81, 57, 49, 40, 63, 76, 23, 80, 69, 9, 8, 117, 75, 21, 61, 13, 81, 59, 61, 73, 78, 34
              |34, 8, 68, 118, 45, 36, 91, 28, 68, 61, 73, 46, 47, 98, 65, 63, 69, 8, 40, 84, 78, 77, 68, 78, 70, 42, 84, 62, 54, 58, 67, 108, 65, 82, 82, 93, 23, 32, 93, 68, 56, 87, 94, 94, 96, 88, 56, 117, 21, 72, 36, 97, 67, 63, 61, 32, 57, 62, 24, 79, 15, 90, 31, 70, 59, 77, 59, 116, 63, 103, 40, 93, 45, 105, 78, 86, 79, 40, 64, 90, 105, 104, 42, 22, 25, 16, 52, 93, 71, 29, 86, 6, 93, 84, 78, 71, 26, 74, 89, 71, 40, 25, 64, 114, 48, 29, 92, 24, 104, 73, 28, 80, 30, 85, 87, 49, 99, 38, 123, 103, 61, 64, 82, 89, 76, 92, 91, 53, 98, 100, 77, 90, 90, 98, 62, 82, 89, 23, 48, 81, 72, 77, 92, 78, 62, 25, 37, 82, 71, 74, 121, 73, 8, 96, 61, 83, 114, 39, 69, 75, 19, 49, 45, 106, 80, 42, 79, 102, 61, 65, 51, 27, 49, 46, 67, 58, 75, 46, 15, 77, 113, 31, 94, 86, 89, 77, 28, 98, 59, 54, 57, 77, 96, 31, 107, 69, 62, 66, 90, 53, 85, 112, 24, 11, 88, 90, 59, 33, 61, 49, 84, 62, 109, 100, 60, 100, 80, 115, 75, 5, 114, 111, 112, 58, 108, 58, 56, 46, 71, 72, 36, 54, 98, 74, 67, 62, 33, 68, 21, 77, 79, 4, 60, 90, 75, 44, 90, 42, 64, 46, 72, 75, 8, 14, 93, 57, 55, 91, 80, 20, 78, 95, 44, 92, 102, 73, 52, 104, 43, 68, 90, 62, 47, 62, 87, 78, 44, 74, 106, 83, 37, 65, 20, 115, 68, 29, 96, 90, 78, 87, 40, 64, 84, 89, 93, 96, 38, 36, 46, 51
              |56, 76, 16, 54, 42, 58, 44, 56, 43, 66, 31, 37, 39, 54, 22, 43, 16, 83, 44, 16, 36, 9, 17, 41, 30, 44, 37, 40, 49, 33, 19, 57, 29, 30, 52, 12, 62, 64, 29, 61, 59, 9, 11, 12, 17, 11, 38, 54, 81, 27, 64, 71, 17, 73, 26, 83, 53, 47, 63, 15, 69, 81, 53, 51, 54, 42, 41, 38, 20, 32, 73, 27, 71, 44, 26, 18, 19, 47, 20, 85, 41, 46, 55, 83, 74, 76, 65, 11, 24, 64, 88, 78, 40, 43, 80, 57, 65, 24, 41, 31, 44, 66, 45, 45, 37, 57, 45, 71, 25, 41, 59, 39, 64, 29, 30, 77, 71, 71, 46, 47, 23, 76, 33, 41, 45, 54, 81, 37, 17, 18, 78, 59, 74, 19, 35, 73, 68, 61, 51, 84, 63, 48, 41, 27, 46, 63, 46, 1, 24, 43, 53, 60, 88, 53, 82, 90, 34, 69, 27, 9, 64, 37, 72, 29, 82, 64, 73, 21, 23, 21, 37, 75, 54, 54, 21, 38, 29, 41, 73, 56, 33, 76, 10, 14, 25, 10, 56, 35, 25, 32, 35, 8, 71, 55, 34, 73, 29, 20, 53, 42, 75, 55, 59, 75, 83, 7, 41, 51, 56, 38, 48, 26, 53, 62, 34, 18, 64, 41, 58, 80, 41, 46, 55, 82, 36, 80, 29, 42, 82, 46, 48, 49, 61, 73, 46, 30, 62, 40, 82, 14, 71, 83, 34, 77, 36, 45, 63, 61, 73, 79, 41, 9, 78, 74, 96, 76, 36, 59, 86, 67, 13, 81, 61, 45, 57, 67, 36, 24, 82, 20, 53, 52, 40, 25, 71, 21, 40, 40, 24, 21, 81, 38, 79, 39, 86, 57, 21, 85, 80, 47, 44, 61, 17, 70, 10, 30, 46, 48, 40, 57
              |58, 80, 65, 57, 58, 94, 35, 67, 35, 27, 97, 70, 59, 31, 81, 101, 76, 81, 72, 89, 104, 66, 76, 34, 47, 80, 108, 98, 40, 87, 79, 41, 50, 101, 23, 72, 69, 56, 53, 21, 33, 69, 81, 75, 71, 67, 47, 56, 69, 92, 52, 13, 75, 26, 58, 61, 35, 34, 67, 86, 77, 6, 76, 27, 33, 33, 42, 77, 71, 61, 49, 102, 43, 49, 49, 92, 56, 83, 73, 10, 53, 47, 96, 70, 63, 72, 36, 84, 52, 60, 16, 84, 41, 112, 14, 21, 63, 91, 38, 96, 66, 92, 103, 62, 60, 84, 36, 64, 72, 105, 86, 36, 58, 48, 103, 42, 17, 50, 78, 44, 75, 26, 43, 37, 30, 26, 6, 52, 89, 89, 14, 19, 4, 70, 46, 6, 9, 81, 97, 15, 17, 27, 40, 97, 103, 88, 69, 74, 52, 108, 64, 18, 85, 31, 34, 20, 77, 49, 91, 76, 77, 59, 44, 70, 15, 46, 9, 75, 64, 60, 84, 61, 41, 45, 82, 46, 97, 82, 90, 19, 79, 58, 82, 88, 99, 80, 67, 51, 66, 60, 50, 77, 12, 83, 65, 20, 52, 61, 25, 47, 4, 48, 78, 89, 9, 76, 43, 67, 30, 82, 116, 83, 45, 25, 89, 76, 11, 69, 18, 89, 66, 56, 48, 37, 64, 34, 76, 84, 23, 30, 77, 100, 24, 14, 32, 52, 56, 37, 70, 61, 9, 91, 48, 2, 39, 86, 15, 46, 25, 46, 35, 69, 89, 74, 22, 33, 51, 20, 18, 69, 63, 7, 44, 36, 32, 15, 82, 74, 50, 59, 25, 31, 83, 80, 4, 91, 64, 35, 78, 55, 55, 41, 69, 71, 30, 84, 66, 10, 15, 117, 77, 25, 59, 7, 78, 55, 64, 76, 81, 38
              |31, 53, 48, 67, 33, 67, 39, 40, 21, 4, 77, 46, 35, 42, 61, 78, 58, 54, 46, 74, 85, 53, 57, 28, 33, 55, 89, 75, 15, 64, 60, 54, 34, 83, 26, 64, 41, 28, 51, 8, 5, 60, 71, 66, 65, 58, 26, 66, 43, 73, 24, 37, 56, 11, 39, 36, 10, 15, 39, 70, 49, 31, 49, 16, 9, 27, 22, 78, 51, 62, 23, 86, 18, 55, 40, 77, 45, 58, 54, 33, 58, 54, 70, 44, 36, 44, 9, 73, 39, 32, 31, 56, 44, 92, 22, 13, 35, 73, 39, 75, 40, 64, 80, 68, 36, 57, 40, 36, 69, 84, 58, 32, 30, 43, 86, 20, 40, 24, 82, 52, 54, 14, 38, 38, 24, 36, 32, 30, 79, 79, 21, 32, 30, 65, 28, 22, 29, 53, 72, 26, 12, 24, 43, 78, 80, 60, 42, 61, 39, 86, 73, 13, 58, 41, 20, 31, 77, 22, 70, 60, 49, 35, 18, 69, 25, 18, 19, 70, 45, 43, 60, 35, 14, 18, 62, 25, 77, 57, 62, 19, 78, 32, 71, 74, 83, 64, 40, 53, 46, 38, 29, 62, 35, 56, 66, 13, 34, 44, 34, 23, 25, 59, 50, 61, 30, 66, 22, 40, 6, 58, 96, 62, 56, 42, 67, 70, 20, 73, 16, 61, 70, 63, 59, 21, 66, 18, 54, 59, 21, 21, 51, 76, 40, 16, 18, 33, 28, 23, 43, 49, 19, 63, 29, 30, 30, 61, 31, 18, 11, 24, 24, 54, 61, 47, 40, 14, 29, 33, 27, 41, 50, 35, 16, 40, 46, 13, 59, 70, 28, 43, 34, 10, 59, 60, 27, 74, 39, 26, 74, 47, 31, 25, 42, 74, 23, 57, 61, 33, 22, 97, 52, 4, 50, 29, 69, 54, 38, 50, 56, 10
              |36, 11, 67, 119, 45, 32, 92, 29, 69, 64, 70, 45, 47, 100, 63, 59, 67, 13, 39, 82, 75, 77, 66, 79, 71, 39, 81, 58, 56, 56, 65, 110, 66, 79, 84, 92, 25, 35, 93, 71, 59, 87, 93, 93, 96, 87, 57, 118, 26, 69, 39, 100, 66, 67, 61, 37, 59, 64, 26, 77, 16, 94, 29, 73, 61, 79, 61, 116, 62, 103, 44, 90, 49, 106, 78, 84, 79, 37, 62, 94, 105, 105, 38, 27, 29, 20, 55, 92, 72, 32, 90, 7, 94, 80, 82, 74, 29, 71, 90, 68, 40, 21, 60, 115, 48, 27, 93, 28, 103, 69, 25, 82, 33, 86, 84, 54, 102, 42, 123, 104, 59, 68, 83, 90, 77, 94, 95, 54, 97, 98, 81, 93, 94, 97, 63, 85, 93, 21, 44, 85, 75, 79, 94, 75, 58, 21, 37, 81, 72, 70, 122, 76, 14, 98, 65, 88, 113, 43, 66, 74, 18, 49, 49, 106, 84, 45, 82, 101, 60, 65, 49, 31, 52, 48, 65, 59, 72, 43, 11, 80, 113, 36, 92, 84, 86, 75, 29, 99, 58, 54, 58, 76, 99, 28, 108, 73, 63, 66, 92, 55, 88, 113, 23, 7, 92, 89, 60, 33, 64, 46, 80, 60, 111, 102, 57, 99, 83, 115, 78, 2, 114, 112, 113, 62, 108, 63, 54, 43, 76, 74, 34, 50, 100, 78, 69, 62, 36, 69, 26, 77, 82, 2, 61, 93, 76, 41, 93, 46, 68, 50, 73, 74, 4, 17, 98, 61, 56, 93, 84, 23, 77, 98, 48, 93, 104, 76, 49, 103, 48, 68, 92, 65, 45, 60, 91, 75, 44, 75, 105, 83, 42, 66, 25, 115, 72, 27, 96, 94, 82, 83, 38, 67, 83, 92, 92, 97, 38, 34, 43, 54
              |43, 68, 46, 50, 41, 77, 23, 52, 16, 20, 78, 52, 41, 25, 61, 82, 57, 70, 54, 70, 85, 47, 57, 16, 28, 62, 88, 79, 23, 68, 60, 36, 31, 82, 9, 55, 55, 44, 38, 10, 21, 51, 64, 58, 55, 50, 29, 49, 60, 73, 40, 22, 55, 24, 39, 54, 19, 16, 53, 67, 63, 25, 59, 8, 17, 15, 23, 64, 51, 48, 41, 83, 35, 39, 31, 73, 38, 66, 54, 28, 42, 38, 78, 61, 53, 61, 26, 66, 33, 47, 31, 72, 28, 93, 24, 5, 50, 72, 24, 76, 49, 76, 84, 52, 42, 67, 24, 52, 57, 86, 69, 19, 46, 32, 84, 37, 24, 41, 67, 35, 55, 26, 26, 23, 12, 18, 25, 34, 72, 72, 23, 15, 19, 54, 27, 17, 15, 65, 79, 28, 8, 9, 27, 78, 84, 72, 51, 56, 33, 88, 56, 5, 75, 24, 34, 34, 64, 39, 71, 57, 63, 41, 36, 56, 26, 35, 16, 59, 45, 41, 65, 51, 27, 31, 63, 27, 77, 63, 76, 1, 65, 49, 64, 69, 80, 61, 52, 38, 47, 41, 31, 58, 21, 66, 52, 20, 33, 42, 16, 29, 18, 42, 62, 75, 26, 59, 24, 51, 15, 63, 97, 64, 39, 24, 70, 60, 8, 58, 2, 76, 55, 47, 42, 36, 51, 33, 57, 65, 29, 11, 60, 82, 22, 18, 13, 32, 43, 18, 61, 43, 14, 78, 29, 21, 21, 68, 14, 34, 23, 41, 16, 50, 76, 62, 39, 30, 32, 15, 30, 56, 44, 26, 32, 24, 28, 12, 64, 59, 45, 40, 16, 14, 65, 61, 16, 72, 46, 17, 63, 38, 49, 22, 59, 59, 34, 67, 50, 28, 25, 98, 60, 14, 41, 16, 61, 41, 47, 59, 62, 25
              |57, 83, 37, 26, 48, 81, 5, 64, 25, 46, 68, 54, 47, 14, 54, 77, 47, 88, 59, 56, 75, 33, 48, 15, 23, 65, 76, 74, 39, 63, 51, 19, 29, 70, 19, 34, 68, 62, 13, 36, 43, 32, 43, 36, 32, 30, 35, 26, 80, 64, 59, 33, 47, 51, 36, 76, 39, 31, 68, 54, 77, 46, 67, 26, 37, 16, 32, 37, 45, 21, 63, 67, 59, 13, 18, 58, 23, 69, 47, 51, 15, 13, 81, 81, 72, 78, 50, 46, 25, 64, 56, 86, 1, 82, 50, 31, 66, 62, 3, 68, 55, 84, 79, 25, 46, 74, 5, 71, 32, 78, 77, 11, 63, 12, 69, 62, 32, 63, 40, 11, 50, 53, 10, 4, 18, 15, 46, 39, 51, 50, 49, 22, 38, 31, 30, 41, 32, 75, 79, 53, 36, 19, 1, 66, 80, 80, 59, 39, 25, 80, 31, 33, 92, 13, 61, 59, 37, 61, 63, 45, 75, 46, 60, 30, 52, 55, 42, 35, 41, 35, 64, 71, 45, 47, 54, 34, 67, 64, 87, 26, 38, 70, 44, 54, 65, 48, 64, 11, 44, 42, 35, 45, 34, 73, 25, 48, 32, 35, 15, 38, 42, 21, 72, 88, 49, 39, 33, 61, 38, 63, 87, 58, 18, 23, 65, 36, 32, 31, 29, 91, 28, 21, 21, 63, 24, 60, 54, 66, 56, 22, 65, 80, 21, 45, 26, 32, 60, 24, 81, 28, 40, 93, 32, 42, 17, 69, 26, 53, 50, 66, 21, 37, 89, 79, 62, 56, 37, 21, 56, 72, 30, 45, 52, 5, 17, 39, 62, 33, 70, 32, 15, 34, 65, 55, 36, 60, 52, 18, 38, 20, 72, 27, 78, 32, 62, 74, 26, 51, 51, 87, 63, 40, 23, 34, 40, 15, 56, 65, 63, 45
              |50, 76, 22, 37, 39, 68, 20, 55, 24, 49, 52, 42, 37, 30, 38, 61, 31, 81, 47, 40, 59, 17, 32, 19, 14, 52, 60, 58, 36, 48, 35, 34, 18, 54, 29, 21, 60, 57, 9, 41, 44, 17, 29, 23, 20, 15, 28, 36, 75, 48, 55, 47, 31, 55, 24, 74, 38, 30, 60, 38, 69, 58, 56, 30, 37, 20, 27, 34, 30, 20, 62, 51, 58, 24, 6, 42, 7, 56, 32, 62, 22, 25, 67, 77, 67, 72, 50, 32, 12, 58, 66, 78, 17, 66, 59, 37, 60, 46, 17, 52, 45, 72, 63, 31, 36, 63, 21, 65, 24, 62, 65, 16, 58, 4, 54, 63, 47, 61, 40, 25, 35, 58, 9, 17, 23, 30, 57, 30, 37, 37, 57, 35, 50, 20, 22, 51, 44, 64, 65, 62, 42, 26, 17, 50, 64, 69, 48, 24, 12, 64, 38, 39, 86, 29, 65, 69, 33, 58, 47, 29, 65, 35, 59, 25, 61, 53, 51, 25, 27, 21, 49, 67, 42, 43, 38, 27, 51, 51, 77, 34, 33, 67, 30, 38, 49, 32, 55, 16, 30, 31, 26, 29, 47, 61, 24, 54, 21, 21, 29, 32, 52, 34, 62, 78, 60, 24, 28, 51, 39, 49, 70, 42, 32, 38, 50, 25, 42, 32, 37, 82, 30, 29, 34, 66, 25, 63, 39, 52, 63, 25, 53, 65, 37, 53, 27, 22, 55, 22, 76, 12, 49, 84, 24, 54, 15, 56, 39, 50, 55, 66, 21, 21, 80, 72, 73, 59, 28, 35, 65, 64, 14, 57, 49, 21, 34, 46, 48, 25, 70, 18, 29, 35, 51, 40, 48, 44, 40, 19, 29, 4, 71, 22, 73, 32, 67, 63, 16, 62, 59, 71, 51, 43, 7, 46, 26, 13, 46, 53, 50, 44
              |17, 21, 41, 94, 20, 21, 69, 8, 47, 50, 48, 19, 21, 77, 38, 41, 42, 28, 13, 57, 54, 50, 40, 56, 46, 16, 60, 39, 36, 33, 40, 87, 40, 57, 63, 66, 10, 23, 68, 54, 42, 60, 67, 67, 70, 61, 34, 93, 31, 46, 27, 81, 40, 55, 35, 38, 40, 43, 13, 52, 13, 79, 4, 52, 42, 56, 38, 90, 36, 78, 37, 67, 39, 81, 53, 60, 53, 16, 37, 80, 80, 81, 25, 33, 27, 23, 41, 66, 46, 20, 78, 21, 70, 61, 69, 55, 18, 48, 66, 46, 14, 17, 43, 89, 22, 9, 70, 24, 77, 50, 11, 58, 22, 61, 62, 46, 83, 34, 97, 80, 34, 57, 59, 66, 55, 72, 80, 29, 71, 73, 68, 72, 77, 71, 39, 69, 74, 6, 29, 73, 58, 58, 69, 53, 41, 13, 11, 55, 46, 52, 97, 57, 32, 75, 57, 77, 87, 33, 43, 48, 9, 23, 40, 80, 72, 32, 67, 75, 34, 39, 26, 29, 34, 30, 40, 35, 50, 20, 18, 60, 86, 32, 66, 59, 63, 50, 8, 74, 31, 28, 34, 50, 80, 9, 82, 59, 37, 40, 70, 32, 72, 89, 4, 20, 78, 63, 37, 8, 45, 23, 62, 36, 87, 81, 35, 73, 65, 89, 59, 24, 88, 87, 89, 55, 83, 54, 28, 21, 65, 53, 10, 34, 79, 64, 47, 37, 22, 46, 32, 51, 66, 27, 37, 77, 52, 20, 73, 31, 56, 45, 50, 48, 22, 20, 87, 51, 31, 72, 73, 16, 51, 82, 33, 70, 81, 60, 26, 77, 45, 42, 70, 45, 22, 35, 73, 52, 18, 52, 79, 57, 40, 43, 29, 89, 64, 9, 70, 80, 69, 65, 14, 50, 57, 74, 66, 71, 13, 9, 20, 37|];
