Warehouses = 50;
Stores = 116;

Capacity = [40, 50, 100, 50, 100, 40, 30, 50, 50, 50, 90, 100, 30, 60, 90, 90, 60, 60, 60, 80, 40, 90, 30, 90, 90, 70, 60, 30, 40, 60, 30, 80, 30, 50, 60, 90, 50, 40, 100, 90, 30, 80, 60, 70, 30, 100, 80, 60, 70, 80];
FixedCost = [380, 610, 860, 580, 970, 480, 210, 520, 390, 460, 1150, 780, 390, 720, 690, 1160, 500, 550, 650, 780, 420, 1130, 240, 980, 1030, 560, 740, 360, 510, 660, 330, 1030, 370, 620, 470, 940, 570, 390, 1170, 1090, 320, 960, 680, 800, 230, 810, 620, 570, 550, 790];
Goods = [9, 6, 5, 17, 9, 15, 15, 16, 11, 11, 10, 14, 20, 14, 15, 17, 11, 7, 19, 17, 8, 15, 11, 19, 16, 10, 14, 13, 11, 14, 10, 9, 19, 10, 11, 14, 9, 13, 19, 9, 8, 10, 9, 11, 16, 7, 5, 5, 13, 8, 12, 15, 10, 6, 10, 18, 5, 9, 11, 15, 15, 15, 19, 14, 15, 18, 16, 14, 5, 5, 12, 13, 8, 20, 18, 12, 16, 10, 10, 9, 12, 11, 14, 14, 19, 9, 14, 15, 14, 14, 18, 18, 7, 13, 7, 15, 12, 9, 9, 9, 13, 14, 18, 15, 10, 6, 19, 18, 15, 16, 14, 6, 20, 12, 19, 15];
SupplyCost = [|96, 76, 8, 86, 39, 66, 105, 6, 124, 96, 52, 24, 80, 121, 98, 41, 103, 107, 65, 106, 57, 103, 9, 33, 67, 64, 31, 27, 83, 52, 100, 73, 30, 123, 94, 98, 26, 82, 84, 73, 59, 99, 48, 95, 59, 14, 51, 44, 50, 67
              |58, 46, 109, 23, 85, 52, 36, 104, 16, 67, 58, 87, 62, 16, 10, 70, 45, 2, 69, 37, 68, 28, 104, 88, 61, 72, 95, 99, 82, 72, 28, 36, 81, 16, 20, 49, 82, 32, 60, 55, 82, 64, 83, 16, 66, 95, 69, 69, 81, 43
              |57, 30, 60, 28, 41, 22, 54, 54, 65, 62, 11, 38, 45, 63, 40, 23, 56, 48, 41, 55, 32, 49, 55, 42, 34, 43, 49, 53, 63, 34, 46, 16, 32, 64, 37, 53, 33, 26, 47, 35, 47, 63, 43, 38, 32, 46, 28, 24, 42, 13
              |77, 62, 20, 80, 57, 73, 92, 22, 117, 75, 55, 21, 91, 113, 94, 34, 87, 102, 46, 92, 69, 92, 18, 16, 78, 44, 9, 4, 59, 35, 89, 67, 41, 116, 86, 81, 33, 83, 95, 57, 76, 79, 65, 88, 42, 21, 62, 34, 29, 60
              |44, 30, 97, 11, 79, 48, 24, 92, 28, 52, 49, 75, 64, 24, 12, 57, 32, 16, 53, 25, 64, 16, 92, 74, 60, 56, 80, 85, 66, 56, 15, 24, 71, 26, 4, 34, 72, 30, 63, 39, 79, 50, 78, 2, 50, 84, 63, 56, 65, 30
              |35, 11, 77, 15, 66, 43, 29, 73, 49, 42, 36, 55, 63, 45, 28, 38, 31, 36, 33, 30, 56, 25, 72, 53, 55, 36, 60, 64, 50, 35, 22, 10, 55, 47, 17, 29, 54, 32, 64, 20, 71, 41, 68, 20, 29, 64, 53, 36, 44, 12
              |83, 62, 101, 37, 65, 32, 66, 95, 46, 91, 47, 82, 31, 50, 31, 68, 74, 33, 81, 67, 45, 58, 96, 88, 35, 84, 94, 97, 100, 78, 57, 43, 68, 48, 44, 75, 72, 20, 27, 70, 55, 90, 60, 40, 74, 87, 49, 70, 87, 49
              |53, 45, 111, 25, 90, 58, 29, 107, 13, 62, 62, 89, 70, 10, 15, 72, 39, 10, 67, 31, 74, 22, 106, 89, 68, 71, 95, 100, 78, 71, 23, 38, 85, 11, 19, 43, 86, 38, 67, 53, 88, 59, 89, 16, 65, 98, 74, 71, 80, 45
              |18, 37, 88, 61, 100, 87, 43, 87, 82, 9, 74, 71, 109, 75, 72, 60, 34, 76, 29, 42, 97, 49, 84, 60, 99, 29, 63, 68, 13, 42, 48, 57, 84, 79, 57, 28, 78, 80, 110, 30, 112, 14, 105, 61, 38, 81, 92, 55, 43, 54
              |42, 15, 66, 21, 55, 35, 40, 62, 58, 48, 26, 44, 57, 54, 35, 27, 41, 43, 31, 41, 47, 37, 61, 44, 48, 34, 50, 55, 51, 29, 34, 8, 44, 57, 27, 38, 43, 31, 59, 21, 62, 48, 58, 29, 24, 54, 43, 25, 38, 2
              |76, 50, 59, 42, 26, 10, 72, 53, 75, 82, 11, 42, 29, 74, 50, 34, 75, 57, 59, 73, 13, 66, 55, 51, 16, 61, 57, 59, 81, 50, 63, 34, 26, 75, 52, 72, 31, 28, 32, 54, 28, 82, 25, 51, 50, 46, 10, 37, 57, 33
              |43, 16, 69, 18, 56, 34, 39, 65, 55, 49, 26, 47, 56, 52, 32, 30, 41, 40, 34, 40, 47, 35, 64, 47, 47, 36, 54, 58, 53, 32, 32, 5, 45, 54, 24, 38, 45, 28, 57, 23, 62, 49, 58, 26, 27, 56, 43, 28, 41, 2
              |57, 51, 118, 31, 96, 63, 32, 113, 7, 66, 68, 96, 74, 4, 21, 79, 42, 14, 73, 33, 80, 26, 113, 95, 73, 76, 102, 106, 83, 77, 27, 45, 91, 5, 25, 47, 92, 44, 72, 59, 94, 62, 95, 23, 71, 104, 80, 77, 86, 51
              |87, 68, 6, 81, 43, 65, 98, 5, 118, 86, 49, 16, 81, 115, 93, 34, 95, 102, 55, 98, 58, 96, 1, 23, 68, 54, 21, 17, 72, 43, 93, 67, 29, 117, 88, 89, 23, 79, 85, 64, 63, 90, 52, 89, 50, 9, 51, 36, 40, 61
              |98, 71, 54, 66, 9, 31, 95, 48, 98, 102, 31, 46, 34, 98, 73, 46, 98, 80, 76, 97, 15, 90, 51, 58, 24, 77, 62, 62, 99, 65, 87, 57, 25, 98, 76, 95, 33, 51, 39, 75, 11, 104, 1, 75, 67, 44, 14, 50, 69, 55
              |16, 23, 96, 33, 91, 68, 10, 93, 48, 25, 62, 75, 88, 41, 40, 58, 5, 43, 39, 9, 82, 15, 91, 69, 81, 42, 74, 80, 43, 48, 15, 36, 79, 45, 26, 6, 77, 55, 87, 26, 97, 22, 94, 30, 41, 85, 79, 55, 55, 37
              |80, 60, 104, 34, 70, 36, 61, 98, 39, 88, 50, 84, 38, 43, 25, 70, 69, 26, 80, 62, 50, 53, 99, 89, 41, 83, 96, 99, 98, 78, 52, 42, 72, 41, 40, 71, 76, 21, 34, 68, 61, 86, 66, 36, 74, 90, 54, 71, 87, 48
              |33, 34, 65, 60, 82, 76, 55, 64, 90, 29, 61, 49, 99, 84, 73, 41, 47, 80, 13, 54, 83, 58, 61, 37, 87, 11, 40, 45, 12, 23, 56, 51, 65, 87, 60, 41, 59, 74, 101, 25, 96, 34, 88, 64, 22, 58, 77, 37, 21, 46
              |90, 67, 21, 74, 24, 51, 96, 15, 111, 92, 38, 20, 64, 109, 85, 32, 95, 94, 61, 97, 41, 93, 18, 33, 52, 61, 34, 32, 81, 48, 90, 61, 15, 110, 82, 90, 14, 67, 68, 66, 44, 94, 33, 83, 53, 13, 35, 36, 48, 56
              |38, 14, 59, 33, 58, 45, 44, 56, 69, 41, 31, 38, 68, 64, 47, 21, 42, 55, 18, 44, 54, 42, 55, 34, 57, 21, 40, 45, 40, 16, 39, 21, 43, 67, 37, 37, 40, 44, 69, 14, 69, 43, 62, 39, 11, 48, 49, 18, 25, 15
              |17, 10, 80, 33, 79, 61, 25, 77, 59, 23, 51, 59, 82, 53, 44, 43, 21, 50, 23, 25, 72, 27, 75, 52, 73, 26, 58, 63, 32, 32, 25, 29, 65, 57, 30, 15, 62, 52, 83, 10, 88, 22, 83, 34, 25, 69, 69, 39, 38, 27
              |104, 77, 65, 68, 20, 31, 99, 59, 97, 109, 37, 56, 26, 98, 73, 55, 102, 80, 84, 100, 16, 93, 63, 69, 21, 86, 73, 73, 107, 74, 90, 61, 36, 97, 78, 100, 43, 50, 31, 82, 0, 110, 11, 77, 75, 55, 19, 59, 79, 61
              |53, 28, 76, 13, 54, 25, 43, 71, 49, 60, 25, 54, 45, 47, 23, 38, 48, 32, 47, 45, 40, 37, 71, 57, 38, 50, 64, 68, 66, 44, 35, 9, 48, 48, 23, 47, 49, 15, 45, 36, 56, 59, 54, 23, 40, 62, 39, 38, 53, 14
              |82, 56, 39, 58, 14, 31, 83, 33, 93, 85, 20, 26, 45, 92, 68, 27, 84, 76, 57, 84, 23, 79, 36, 38, 33, 58, 43, 43, 80, 45, 76, 46, 6, 93, 67, 80, 13, 48, 50, 58, 30, 87, 21, 67, 48, 27, 16, 31, 49, 42
              |44, 30, 95, 9, 77, 46, 26, 91, 29, 53, 47, 73, 62, 26, 11, 56, 33, 16, 53, 27, 62, 18, 90, 73, 58, 56, 79, 84, 66, 55, 16, 22, 69, 28, 4, 35, 70, 28, 61, 39, 77, 51, 76, 0, 49, 82, 61, 54, 64, 28
              |47, 20, 61, 25, 49, 32, 46, 57, 63, 52, 20, 39, 54, 60, 39, 22, 47, 47, 32, 47, 42, 43, 56, 40, 44, 34, 47, 51, 53, 27, 40, 12, 38, 62, 32, 44, 37, 31, 56, 25, 57, 53, 52, 34, 24, 48, 38, 21, 36, 6
              |100, 73, 56, 67, 11, 31, 97, 50, 98, 104, 33, 48, 32, 98, 74, 48, 99, 81, 78, 98, 15, 91, 53, 61, 24, 79, 64, 64, 101, 67, 88, 59, 27, 98, 77, 97, 35, 51, 37, 76, 9, 105, 2, 76, 69, 46, 15, 52, 72, 57
              |45, 29, 47, 50, 59, 56, 58, 45, 86, 45, 39, 28, 78, 81, 64, 18, 54, 72, 14, 58, 61, 58, 43, 19, 66, 14, 25, 30, 35, 1, 55, 38, 42, 84, 54, 48, 36, 59, 81, 23, 74, 48, 65, 57, 9, 38, 55, 14, 8, 32
              |4, 24, 88, 46, 92, 75, 28, 86, 66, 9, 64, 68, 96, 59, 56, 54, 19, 60, 27, 27, 86, 33, 83, 60, 87, 29, 64, 70, 25, 39, 32, 43, 77, 63, 41, 13, 73, 66, 97, 21, 102, 9, 96, 45, 33, 78, 82, 50, 44, 42
              |8, 33, 93, 54, 100, 83, 33, 91, 72, 1, 72, 74, 105, 65, 63, 61, 23, 67, 32, 32, 95, 39, 88, 64, 96, 33, 68, 74, 23, 45, 39, 52, 84, 69, 48, 18, 80, 74, 105, 28, 110, 4, 104, 53, 39, 84, 90, 57, 48, 50
              |92, 66, 42, 65, 4, 34, 92, 36, 99, 95, 27, 34, 43, 98, 74, 36, 93, 82, 67, 93, 21, 87, 39, 47, 32, 68, 50, 50, 89, 55, 84, 54, 13, 99, 75, 90, 21, 53, 48, 68, 24, 97, 13, 74, 58, 32, 16, 41, 59, 51
              |66, 54, 31, 74, 62, 72, 82, 32, 110, 64, 54, 24, 92, 106, 88, 31, 77, 96, 35, 82, 72, 83, 28, 12, 79, 33, 8, 11, 47, 26, 80, 61, 45, 108, 78, 71, 37, 80, 96, 48, 81, 68, 70, 81, 33, 29, 65, 30, 19, 55
              |82, 55, 49, 52, 15, 22, 80, 43, 86, 86, 15, 34, 36, 85, 61, 31, 82, 69, 60, 81, 14, 75, 45, 46, 23, 61, 50, 51, 82, 49, 72, 42, 15, 86, 62, 79, 22, 40, 40, 58, 25, 87, 17, 62, 51, 36, 7, 35, 54, 39
              |36, 10, 64, 27, 59, 43, 39, 61, 63, 41, 31, 42, 65, 58, 41, 26, 38, 49, 22, 40, 54, 37, 60, 40, 55, 25, 46, 51, 43, 22, 34, 16, 46, 61, 31, 34, 44, 39, 67, 13, 68, 42, 63, 34, 16, 52, 49, 23, 31, 11
              |85, 60, 85, 40, 47, 16, 72, 79, 61, 92, 34, 68, 15, 63, 40, 57, 78, 45, 76, 73, 27, 65, 81, 76, 17, 79, 82, 85, 97, 70, 63, 41, 52, 62, 50, 78, 58, 19, 14, 67, 37, 91, 42, 47, 68, 72, 32, 59, 78, 44
              |15, 37, 92, 60, 102, 88, 40, 91, 79, 6, 76, 74, 110, 72, 70, 63, 30, 74, 32, 39, 98, 46, 88, 64, 100, 33, 67, 73, 18, 46, 46, 57, 86, 76, 55, 25, 81, 80, 110, 32, 113, 10, 107, 59, 41, 84, 94, 58, 47, 54
              |90, 67, 19, 75, 26, 52, 97, 13, 112, 91, 39, 19, 66, 110, 86, 32, 95, 95, 61, 97, 43, 94, 16, 32, 53, 60, 33, 30, 81, 48, 90, 62, 16, 111, 83, 91, 14, 69, 70, 66, 46, 94, 35, 84, 53, 11, 37, 36, 48, 57
              |77, 62, 18, 79, 54, 71, 92, 20, 117, 76, 53, 19, 89, 113, 93, 33, 87, 101, 46, 92, 67, 91, 16, 15, 76, 44, 9, 4, 60, 35, 88, 66, 39, 115, 85, 81, 31, 81, 93, 57, 74, 80, 63, 87, 42, 19, 60, 33, 29, 59
              |80, 63, 15, 80, 52, 69, 93, 16, 117, 78, 52, 17, 87, 113, 93, 32, 89, 101, 48, 93, 65, 92, 12, 16, 74, 46, 11, 6, 63, 37, 89, 66, 36, 115, 86, 83, 29, 81, 91, 59, 71, 82, 60, 88, 44, 16, 58, 33, 32, 60
              |91, 64, 55, 58, 13, 23, 88, 49, 90, 96, 24, 44, 29, 90, 65, 41, 90, 72, 70, 89, 8, 82, 52, 56, 18, 72, 60, 61, 93, 59, 79, 49, 23, 90, 68, 88, 31, 43, 34, 68, 14, 97, 9, 67, 61, 44, 6, 45, 65, 48
              |94, 68, 77, 53, 35, 18, 85, 71, 77, 101, 33, 63, 7, 79, 55, 56, 90, 61, 80, 86, 15, 78, 74, 73, 6, 82, 79, 80, 103, 72, 76, 50, 44, 78, 63, 89, 51, 33, 12, 74, 21, 101, 28, 61, 72, 65, 22, 59, 79, 51
              |67, 40, 60, 34, 34, 14, 62, 54, 68, 72, 6, 40, 36, 67, 43, 28, 65, 51, 50, 63, 22, 57, 55, 47, 24, 52, 53, 56, 72, 42, 54, 24, 28, 68, 43, 63, 32, 24, 38, 45, 38, 73, 34, 43, 41, 46, 19, 30, 50, 23
              |95, 69, 85, 51, 43, 21, 83, 79, 72, 102, 38, 70, 4, 74, 51, 61, 89, 56, 84, 85, 23, 76, 81, 80, 13, 86, 85, 87, 105, 76, 74, 50, 52, 73, 61, 89, 58, 30, 4, 76, 29, 101, 36, 58, 75, 73, 30, 64, 84, 53
              |55, 38, 37, 57, 53, 57, 68, 35, 94, 55, 39, 19, 78, 89, 71, 16, 64, 79, 24, 68, 59, 67, 32, 9, 65, 23, 15, 20, 43, 12, 65, 44, 35, 92, 62, 58, 29, 63, 81, 34, 70, 58, 60, 65, 19, 28, 52, 13, 10, 38
              |103, 76, 62, 68, 17, 31, 98, 56, 98, 108, 36, 54, 28, 98, 74, 53, 102, 80, 82, 100, 15, 93, 60, 66, 22, 84, 70, 70, 105, 71, 90, 61, 33, 98, 78, 99, 41, 51, 33, 80, 3, 109, 8, 77, 73, 52, 18, 57, 77, 59
              |93, 68, 31, 71, 14, 44, 96, 25, 107, 95, 34, 27, 55, 106, 81, 35, 96, 90, 65, 97, 33, 92, 29, 40, 43, 66, 43, 41, 87, 53, 89, 59, 12, 106, 80, 92, 16, 62, 59, 68, 34, 97, 23, 81, 57, 22, 27, 39, 55, 55
              |78, 60, 14, 74, 45, 62, 89, 13, 112, 77, 45, 11, 80, 108, 87, 27, 86, 96, 47, 90, 58, 88, 10, 14, 67, 45, 12, 9, 64, 34, 85, 61, 29, 110, 81, 81, 22, 74, 84, 56, 65, 81, 54, 83, 41, 10, 51, 28, 31, 54
              |74, 50, 31, 58, 26, 40, 79, 25, 95, 76, 23, 13, 57, 92, 70, 16, 79, 78, 47, 80, 35, 76, 26, 25, 44, 47, 29, 30, 68, 34, 73, 45, 8, 94, 66, 74, 3, 53, 61, 50, 44, 79, 34, 67, 38, 17, 28, 21, 37, 39
              |8, 27, 97, 42, 97, 76, 18, 94, 57, 16, 68, 76, 96, 50, 50, 61, 8, 53, 37, 17, 89, 25, 92, 69, 88, 39, 74, 79, 36, 48, 24, 43, 83, 54, 36, 4, 80, 64, 96, 27, 104, 12, 100, 39, 41, 86, 85, 57, 54, 44
              |57, 32, 76, 16, 52, 22, 47, 71, 50, 64, 24, 55, 41, 48, 24, 39, 52, 32, 50, 48, 37, 41, 71, 59, 34, 53, 65, 69, 70, 47, 38, 13, 47, 49, 26, 51, 49, 11, 41, 40, 52, 64, 51, 25, 43, 62, 36, 40, 56, 17
              |49, 22, 60, 26, 47, 30, 48, 56, 64, 54, 18, 38, 52, 61, 39, 21, 49, 48, 34, 49, 40, 44, 55, 40, 42, 36, 47, 51, 55, 28, 41, 13, 36, 62, 34, 46, 35, 30, 54, 27, 55, 55, 50, 35, 25, 47, 36, 21, 37, 7
              |88, 69, 5, 81, 41, 65, 99, 3, 119, 88, 49, 17, 80, 116, 94, 35, 96, 103, 57, 99, 58, 97, 1, 25, 67, 56, 23, 19, 75, 45, 94, 68, 29, 118, 89, 91, 23, 79, 84, 66, 61, 92, 50, 90, 51, 9, 51, 37, 42, 62
              |70, 54, 109, 28, 80, 46, 49, 104, 24, 79, 56, 88, 52, 28, 15, 72, 58, 12, 76, 50, 61, 41, 104, 91, 53, 79, 98, 102, 92, 77, 40, 40, 79, 25, 30, 61, 81, 26, 49, 63, 74, 76, 77, 26, 71, 95, 64, 72, 86, 46
              |40, 14, 64, 25, 56, 38, 41, 60, 61, 45, 27, 42, 60, 57, 38, 25, 41, 47, 27, 42, 49, 38, 59, 41, 50, 30, 47, 52, 48, 25, 35, 12, 43, 60, 30, 37, 41, 35, 62, 18, 64, 46, 59, 32, 20, 51, 45, 23, 34, 6
              |53, 31, 85, 7, 62, 31, 39, 80, 40, 61, 34, 63, 48, 38, 14, 47, 45, 23, 52, 40, 47, 32, 80, 65, 43, 55, 72, 76, 70, 51, 30, 14, 57, 39, 17, 45, 58, 14, 47, 40, 62, 59, 62, 15, 46, 71, 47, 47, 60, 21
              |64, 38, 52, 37, 32, 21, 63, 47, 73, 69, 4, 32, 43, 72, 48, 20, 64, 56, 45, 64, 26, 59, 48, 39, 30, 46, 45, 48, 67, 35, 55, 25, 23, 73, 46, 61, 25, 31, 46, 41, 40, 70, 35, 47, 35, 39, 21, 23, 43, 22
              |100, 74, 88, 56, 46, 25, 88, 82, 75, 107, 43, 74, 4, 78, 55, 66, 94, 60, 89, 89, 26, 80, 85, 84, 17, 91, 89, 91, 110, 81, 78, 55, 55, 76, 65, 93, 62, 34, 2, 81, 30, 106, 38, 63, 80, 76, 33, 69, 89, 58
              |49, 30, 90, 4, 69, 38, 33, 85, 34, 57, 40, 68, 54, 32, 10, 51, 40, 18, 52, 34, 54, 25, 85, 69, 50, 55, 75, 80, 68, 53, 23, 17, 63, 33, 10, 41, 64, 21, 53, 39, 69, 55, 68, 8, 48, 76, 54, 50, 62, 24
              |27, 17, 65, 43, 72, 61, 42, 63, 74, 28, 47, 45, 83, 69, 56, 32, 37, 63, 6, 42, 69, 44, 60, 37, 72, 9, 42, 47, 24, 16, 41, 34, 56, 72, 43, 31, 51, 58, 85, 9, 84, 31, 77, 47, 10, 55, 64, 28, 22, 29
              |106, 79, 68, 69, 23, 31, 100, 62, 96, 111, 39, 59, 24, 97, 73, 58, 103, 80, 86, 101, 17, 94, 65, 72, 20, 88, 76, 76, 109, 76, 91, 62, 39, 97, 79, 101, 46, 50, 29, 83, 3, 111, 14, 77, 77, 58, 21, 62, 81, 62
              |98, 72, 60, 64, 15, 27, 94, 54, 94, 103, 31, 50, 27, 95, 70, 49, 97, 77, 78, 95, 11, 88, 57, 63, 19, 79, 67, 67, 101, 67, 86, 56, 30, 94, 74, 95, 37, 47, 32, 76, 6, 104, 7, 73, 69, 50, 13, 53, 73, 55
              |74, 55, 19, 69, 42, 57, 85, 16, 106, 74, 40, 5, 75, 103, 82, 21, 82, 90, 43, 85, 53, 83, 14, 12, 62, 42, 13, 12, 61, 30, 80, 55, 25, 105, 75, 76, 17, 68, 79, 51, 61, 77, 50, 77, 37, 9, 46, 23, 28, 49
              |63, 37, 46, 41, 32, 28, 65, 41, 78, 67, 10, 25, 49, 76, 53, 13, 65, 62, 40, 65, 31, 61, 41, 32, 36, 42, 38, 41, 63, 30, 58, 29, 19, 77, 50, 61, 19, 38, 52, 39, 44, 68, 37, 51, 31, 33, 25, 17, 37, 24
              |54, 46, 46, 70, 72, 75, 72, 46, 104, 50, 58, 35, 97, 98, 84, 35, 66, 91, 24, 72, 78, 74, 43, 21, 84, 21, 21, 25, 32, 21, 71, 58, 54, 102, 72, 60, 47, 79, 100, 38, 89, 55, 79, 75, 26, 42, 71, 31, 12, 51
              |76, 49, 56, 43, 24, 13, 72, 50, 77, 81, 9, 39, 32, 76, 52, 31, 75, 60, 57, 73, 13, 67, 52, 49, 19, 59, 54, 56, 80, 48, 64, 34, 23, 77, 53, 72, 28, 31, 35, 54, 28, 82, 24, 53, 48, 43, 9, 34, 55, 33
              |59, 38, 90, 13, 65, 31, 42, 85, 36, 67, 38, 69, 45, 36, 11, 53, 50, 19, 59, 44, 48, 35, 85, 72, 42, 62, 78, 82, 76, 58, 33, 21, 61, 36, 20, 50, 63, 12, 44, 47, 62, 65, 63, 17, 53, 77, 48, 53, 67, 28
              |47, 21, 55, 32, 49, 37, 50, 51, 69, 51, 22, 33, 59, 66, 46, 16, 49, 54, 27, 50, 45, 47, 50, 33, 48, 29, 39, 44, 49, 20, 44, 19, 35, 68, 38, 45, 33, 38, 61, 23, 59, 52, 53, 40, 18, 43, 40, 14, 29, 12
              |90, 66, 24, 72, 21, 48, 95, 18, 109, 92, 36, 21, 61, 107, 83, 32, 95, 92, 62, 96, 39, 92, 21, 34, 49, 61, 36, 34, 82, 49, 89, 60, 13, 108, 81, 90, 13, 65, 66, 66, 41, 94, 30, 82, 54, 15, 32, 36, 50, 55
              |54, 42, 41, 64, 64, 67, 70, 41, 99, 52, 50, 27, 89, 95, 78, 27, 65, 86, 22, 70, 70, 71, 37, 14, 76, 20, 16, 21, 36, 15, 68, 52, 46, 97, 68, 59, 39, 72, 92, 35, 81, 56, 71, 71, 22, 35, 63, 24, 6, 45
              |98, 80, 7, 93, 51, 77, 110, 13, 131, 97, 61, 29, 91, 128, 106, 46, 106, 115, 66, 110, 69, 108, 12, 34, 79, 64, 29, 24, 81, 54, 105, 80, 40, 130, 100, 101, 35, 91, 96, 76, 71, 100, 60, 102, 61, 21, 62, 48, 50, 74
              |90, 64, 44, 63, 5, 31, 90, 38, 97, 94, 25, 34, 41, 96, 71, 36, 91, 79, 66, 91, 19, 85, 41, 47, 29, 67, 51, 51, 89, 54, 82, 52, 14, 96, 72, 88, 21, 50, 46, 66, 22, 96, 12, 72, 57, 33, 13, 40, 59, 49
              |73, 52, 99, 27, 68, 33, 54, 93, 37, 81, 45, 79, 39, 39, 19, 64, 62, 22, 73, 56, 48, 47, 94, 83, 40, 76, 90, 93, 91, 71, 45, 35, 67, 38, 33, 64, 71, 15, 36, 61, 61, 79, 64, 29, 67, 85, 51, 65, 81, 41
              |68, 47, 93, 22, 64, 29, 51, 88, 39, 76, 40, 73, 38, 40, 17, 58, 59, 22, 67, 53, 45, 44, 89, 77, 38, 70, 84, 87, 85, 65, 42, 29, 62, 39, 29, 60, 66, 10, 36, 56, 58, 74, 61, 26, 61, 80, 47, 59, 74, 35
              |77, 60, 16, 76, 49, 66, 90, 17, 113, 76, 49, 14, 84, 110, 89, 29, 86, 98, 45, 90, 62, 89, 13, 13, 71, 44, 9, 5, 61, 34, 86, 63, 34, 112, 82, 80, 26, 77, 88, 55, 69, 80, 58, 84, 41, 14, 55, 30, 29, 56
              |94, 73, 8, 84, 38, 64, 103, 4, 122, 94, 50, 22, 78, 119, 96, 38, 101, 105, 63, 104, 56, 101, 8, 31, 66, 62, 29, 25, 81, 50, 98, 71, 28, 120, 92, 96, 24, 80, 83, 71, 58, 97, 47, 93, 57, 12, 49, 41, 48, 65
              |80, 54, 68, 41, 31, 4, 73, 62, 71, 86, 19, 51, 21, 71, 47, 42, 77, 54, 65, 74, 12, 66, 64, 60, 9, 67, 66, 68, 88, 57, 64, 36, 35, 71, 51, 75, 40, 24, 24, 59, 27, 86, 28, 50, 57, 55, 15, 45, 65, 36
              |66, 58, 123, 37, 99, 65, 41, 118, 4, 75, 72, 101, 73, 10, 24, 84, 51, 16, 81, 42, 81, 35, 118, 102, 74, 84, 108, 113, 92, 85, 36, 50, 95, 6, 32, 56, 97, 45, 70, 67, 94, 71, 96, 29, 78, 110, 82, 83, 93, 57
              |90, 66, 27, 71, 18, 46, 95, 21, 107, 92, 34, 23, 58, 106, 82, 32, 94, 90, 62, 96, 36, 91, 24, 36, 46, 62, 38, 37, 83, 49, 88, 59, 11, 107, 80, 90, 13, 63, 63, 66, 38, 95, 27, 81, 54, 18, 30, 36, 51, 54
              |77, 54, 24, 64, 29, 46, 84, 18, 101, 79, 30, 9, 63, 98, 76, 19, 82, 84, 48, 84, 41, 81, 19, 22, 50, 48, 25, 25, 69, 35, 78, 50, 12, 100, 71, 78, 5, 60, 67, 53, 48, 81, 38, 73, 40, 10, 34, 23, 36, 45
              |81, 55, 72, 40, 35, 4, 72, 66, 68, 87, 22, 55, 18, 69, 44, 46, 76, 51, 68, 73, 16, 65, 68, 64, 9, 70, 70, 72, 90, 60, 63, 36, 39, 68, 50, 75, 45, 21, 20, 61, 29, 87, 31, 49, 59, 59, 19, 48, 68, 37
              |96, 71, 91, 52, 49, 25, 83, 85, 69, 103, 42, 75, 9, 72, 50, 66, 89, 54, 87, 84, 29, 76, 87, 84, 19, 89, 90, 92, 108, 80, 74, 52, 57, 70, 61, 89, 64, 30, 4, 78, 35, 103, 42, 58, 78, 78, 35, 68, 88, 55
              |51, 30, 87, 5, 65, 34, 36, 82, 37, 59, 37, 65, 51, 35, 12, 49, 43, 21, 52, 38, 50, 29, 82, 67, 46, 55, 73, 78, 69, 52, 27, 15, 59, 36, 14, 43, 61, 17, 50, 39, 65, 57, 64, 12, 47, 74, 50, 48, 61, 22
              |76, 49, 53, 45, 22, 17, 73, 47, 79, 81, 9, 36, 34, 78, 54, 29, 75, 62, 56, 74, 15, 68, 49, 46, 21, 57, 51, 53, 79, 46, 65, 35, 20, 79, 55, 73, 25, 33, 38, 53, 29, 81, 24, 54, 47, 40, 9, 32, 52, 33
              |94, 68, 48, 65, 4, 31, 93, 42, 98, 98, 28, 39, 38, 97, 73, 41, 95, 80, 71, 94, 17, 88, 45, 52, 27, 72, 56, 56, 93, 59, 85, 55, 19, 98, 75, 92, 26, 51, 43, 71, 17, 100, 7, 74, 62, 38, 13, 45, 64, 52
              |59, 44, 105, 20, 80, 47, 37, 100, 21, 68, 53, 83, 57, 21, 6, 66, 47, 3, 67, 39, 63, 30, 100, 84, 56, 70, 91, 95, 81, 69, 29, 33, 76, 21, 19, 49, 78, 27, 55, 53, 77, 65, 78, 15, 63, 91, 64, 66, 78, 39
              |46, 22, 79, 8, 61, 33, 36, 74, 45, 53, 31, 57, 52, 42, 21, 40, 40, 29, 43, 37, 48, 30, 74, 57, 45, 46, 64, 69, 61, 42, 27, 6, 52, 44, 16, 39, 53, 21, 52, 31, 63, 52, 61, 17, 37, 65, 46, 39, 52, 13
              |81, 59, 99, 35, 64, 31, 64, 94, 45, 89, 46, 80, 31, 48, 29, 66, 72, 31, 79, 65, 44, 56, 95, 86, 35, 82, 92, 96, 98, 76, 54, 41, 67, 47, 42, 73, 71, 18, 28, 68, 55, 87, 60, 38, 72, 86, 48, 68, 85, 46
              |13, 18, 90, 33, 87, 65, 16, 87, 52, 22, 58, 69, 86, 46, 42, 53, 10, 46, 33, 16, 79, 19, 85, 63, 78, 35, 68, 73, 38, 42, 18, 33, 74, 50, 27, 6, 71, 54, 86, 20, 94, 20, 90, 31, 35, 79, 75, 49, 49, 34
              |27, 35, 74, 61, 89, 81, 51, 73, 88, 21, 66, 58, 103, 81, 73, 49, 42, 79, 18, 50, 89, 55, 70, 46, 92, 17, 49, 54, 4, 30, 53, 53, 72, 85, 59, 36, 67, 77, 105, 26, 103, 26, 95, 63, 28, 67, 84, 44, 29, 49
              |26, 17, 66, 43, 72, 61, 42, 64, 74, 27, 48, 46, 84, 68, 56, 33, 36, 63, 6, 42, 70, 43, 61, 38, 73, 9, 43, 48, 24, 17, 41, 34, 57, 72, 43, 30, 52, 58, 85, 8, 84, 30, 78, 47, 11, 56, 65, 29, 22, 30
              |59, 37, 36, 51, 42, 45, 67, 33, 88, 61, 27, 14, 66, 85, 64, 4, 65, 73, 30, 68, 47, 65, 31, 15, 53, 30, 22, 25, 52, 17, 62, 38, 25, 87, 57, 60, 19, 53, 69, 35, 58, 63, 49, 59, 22, 24, 40, 5, 21, 31
              |93, 76, 8, 91, 53, 77, 106, 14, 129, 92, 60, 27, 92, 125, 104, 44, 102, 113, 62, 107, 70, 105, 11, 30, 79, 60, 25, 19, 76, 50, 102, 78, 41, 127, 98, 97, 35, 90, 97, 72, 73, 96, 62, 100, 57, 20, 63, 45, 45, 71
              |76, 55, 19, 68, 38, 54, 85, 15, 105, 76, 37, 4, 72, 102, 81, 21, 83, 89, 45, 86, 50, 83, 14, 15, 59, 44, 16, 16, 64, 32, 80, 54, 22, 104, 75, 77, 14, 67, 76, 52, 57, 79, 47, 77, 38, 7, 43, 23, 31, 48
              |55, 28, 64, 23, 45, 23, 50, 59, 60, 61, 15, 43, 45, 58, 35, 27, 53, 43, 42, 51, 35, 45, 60, 46, 35, 44, 53, 57, 63, 36, 42, 12, 37, 59, 32, 50, 38, 22, 46, 34, 50, 61, 46, 33, 34, 51, 32, 28, 45, 11
              |102, 76, 69, 65, 24, 27, 96, 63, 92, 108, 36, 59, 21, 93, 69, 56, 100, 75, 84, 97, 14, 90, 66, 71, 16, 86, 75, 76, 107, 74, 87, 59, 38, 93, 75, 98, 46, 46, 25, 80, 6, 108, 15, 73, 75, 59, 19, 60, 80, 59
              |44, 38, 52, 62, 72, 72, 63, 52, 95, 41, 55, 38, 94, 90, 76, 33, 57, 83, 15, 63, 76, 65, 48, 25, 81, 12, 27, 32, 25, 16, 62, 51, 55, 93, 64, 50, 48, 73, 96, 30, 88, 46, 79, 67, 19, 46, 70, 29, 9, 45
              |68, 48, 97, 22, 67, 33, 50, 91, 35, 76, 43, 76, 41, 37, 15, 61, 58, 19, 69, 52, 48, 43, 92, 80, 41, 72, 87, 90, 87, 68, 41, 31, 66, 36, 28, 60, 69, 13, 39, 57, 62, 74, 64, 25, 63, 83, 51, 61, 77, 37
              |32, 41, 75, 67, 93, 87, 56, 75, 93, 25, 72, 61, 109, 87, 79, 53, 47, 85, 23, 55, 94, 60, 72, 49, 98, 22, 50, 55, 4, 34, 59, 59, 76, 91, 65, 41, 70, 83, 111, 32, 108, 30, 100, 69, 33, 70, 88, 49, 32, 55
              |96, 79, 10, 94, 55, 79, 109, 16, 132, 94, 63, 30, 94, 128, 107, 47, 105, 116, 64, 109, 72, 108, 14, 32, 82, 62, 27, 22, 78, 53, 105, 81, 43, 130, 101, 99, 38, 93, 99, 75, 75, 98, 64, 103, 60, 23, 65, 48, 48, 74
              |104, 77, 74, 65, 29, 28, 96, 68, 91, 110, 39, 63, 17, 92, 68, 60, 101, 74, 87, 98, 16, 90, 71, 75, 16, 89, 80, 80, 110, 77, 87, 60, 43, 91, 75, 99, 50, 45, 21, 83, 10, 110, 20, 73, 78, 63, 23, 64, 84, 60
              |61, 49, 34, 70, 62, 69, 77, 35, 106, 59, 51, 24, 90, 101, 84, 28, 72, 92, 30, 77, 70, 78, 31, 11, 77, 28, 9, 14, 43, 21, 75, 57, 44, 104, 74, 66, 37, 76, 93, 43, 80, 63, 70, 77, 28, 31, 63, 26, 14, 50
              |89, 62, 55, 56, 13, 21, 85, 49, 88, 93, 22, 42, 30, 88, 63, 39, 88, 71, 68, 87, 8, 80, 51, 54, 18, 69, 59, 59, 91, 57, 77, 47, 22, 88, 66, 85, 29, 41, 34, 66, 16, 94, 11, 65, 59, 43, 4, 43, 63, 46
              |93, 76, 8, 91, 53, 77, 106, 14, 129, 92, 60, 27, 92, 125, 104, 44, 102, 113, 62, 107, 70, 105, 11, 30, 79, 60, 25, 19, 76, 50, 102, 78, 41, 127, 98, 97, 35, 90, 97, 72, 73, 96, 62, 100, 57, 20, 63, 45, 45, 71
              |68, 44, 84, 23, 54, 19, 55, 78, 48, 76, 30, 64, 32, 48, 24, 50, 61, 31, 63, 56, 35, 47, 79, 69, 29, 66, 76, 79, 82, 59, 45, 25, 52, 48, 32, 61, 56, 1, 31, 52, 49, 74, 51, 30, 56, 70, 37, 51, 68, 30
              |58, 33, 74, 18, 50, 20, 49, 69, 52, 65, 22, 53, 40, 51, 26, 38, 53, 35, 50, 50, 35, 43, 69, 57, 32, 53, 64, 67, 70, 46, 40, 13, 44, 51, 28, 52, 47, 12, 40, 40, 50, 64, 49, 27, 43, 60, 34, 38, 55, 17
              |9, 19, 84, 41, 86, 69, 27, 81, 64, 14, 59, 64, 91, 57, 51, 49, 19, 56, 24, 26, 81, 31, 79, 56, 81, 26, 61, 66, 26, 35, 29, 37, 72, 61, 37, 13, 68, 60, 91, 15, 96, 14, 90, 41, 28, 74, 76, 45, 40, 36
              |54, 28, 70, 18, 49, 23, 47, 65, 54, 60, 20, 49, 45, 52, 29, 33, 50, 38, 44, 48, 37, 41, 65, 52, 36, 47, 58, 62, 64, 40, 38, 9, 42, 54, 27, 48, 43, 18, 45, 35, 53, 60, 50, 28, 36, 57, 35, 33, 49, 11
              |81, 54, 52, 50, 18, 18, 78, 46, 83, 85, 14, 37, 33, 83, 58, 32, 80, 66, 60, 79, 12, 73, 48, 48, 20, 62, 53, 54, 83, 50, 70, 40, 19, 83, 59, 78, 25, 37, 37, 58, 24, 86, 18, 59, 51, 40, 5, 36, 56, 38
              |43, 25, 49, 46, 57, 53, 55, 47, 82, 44, 36, 29, 75, 77, 60, 17, 51, 68, 14, 55, 58, 55, 45, 22, 63, 14, 28, 33, 36, 3, 52, 34, 41, 80, 50, 46, 35, 55, 78, 21, 71, 47, 63, 53, 6, 39, 52, 13, 12, 27
              |61, 34, 53, 35, 35, 24, 60, 47, 72, 65, 7, 32, 46, 70, 47, 18, 61, 55, 41, 61, 30, 56, 48, 37, 34, 43, 44, 47, 64, 32, 53, 23, 25, 71, 44, 58, 26, 32, 48, 38, 44, 66, 38, 45, 32, 39, 25, 20, 40, 19
              |91, 64, 57, 57, 15, 21, 87, 51, 88, 96, 24, 45, 27, 88, 64, 42, 90, 71, 71, 88, 6, 81, 54, 57, 16, 72, 62, 62, 94, 60, 78, 49, 25, 88, 67, 87, 33, 41, 32, 68, 14, 97, 10, 66, 62, 46, 6, 46, 66, 47
              |7, 28, 88, 50, 94, 78, 32, 86, 70, 5, 67, 69, 100, 63, 60, 56, 22, 64, 27, 31, 89, 37, 84, 60, 90, 29, 64, 69, 21, 40, 36, 47, 79, 67, 45, 16, 75, 69, 100, 23, 104, 7, 98, 49, 34, 79, 85, 51, 43, 45
              |58, 39, 94, 13, 69, 36, 40, 89, 32, 67, 42, 73, 49, 32, 7, 57, 48, 14, 61, 42, 52, 33, 89, 75, 46, 64, 82, 86, 77, 61, 31, 24, 65, 32, 18, 50, 67, 16, 47, 48, 66, 64, 67, 15, 56, 81, 53, 56, 70, 31
              |56, 48, 113, 27, 91, 58, 32, 109, 11, 65, 64, 91, 69, 9, 16, 74, 42, 9, 70, 34, 75, 25, 108, 91, 68, 73, 98, 102, 81, 74, 26, 40, 86, 9, 21, 46, 87, 38, 67, 56, 89, 62, 90, 19, 68, 100, 75, 73, 83, 47
              |20, 14, 73, 39, 77, 62, 35, 70, 68, 22, 50, 52, 84, 62, 52, 38, 29, 58, 13, 35, 72, 37, 68, 45, 74, 16, 50, 55, 25, 24, 34, 33, 61, 66, 38, 23, 57, 56, 86, 6, 87, 24, 81, 42, 17, 63, 68, 34, 30, 29
              |43, 17, 59, 30, 53, 39, 46, 55, 67, 47, 25, 36, 61, 63, 44, 19, 45, 52, 25, 47, 48, 43, 54, 35, 50, 27, 42, 46, 46, 20, 40, 17, 39, 65, 35, 41, 37, 38, 63, 19, 62, 48, 56, 38, 16, 46, 43, 17, 29, 10|];
